BEGIN IONS
PEPMASS=291.08624
CHARGE=1
MSLEVEL=2
FILENAME=PhenolicsDB_Positive.mgf
SCANS=1
SEQ=*..*
IONMODE=Positive
ORGANISM=N/A
NAME=(-)-Epicatechin 20eV
PI=Jessica Cooperstone
DATACOLECTOR=DOI:10.5281/zenodo.8475
SMILES=C1C(C(OC2=CC(=CC(=C21)O)O)C3=CC(=C(C=C3)O)O)O
INCHI=PFTAWBLQPZVEMU-UKRRQHHQSA-N
INCHIAUX=N/A
PUBMED=N/A
LIBRARYQUALITY=1
119.04904	3
123.04405	49
139.03884	100
147.04413	19
151.03871	2
161.05944	7
163.03862	2
165.0543	9
179.07	4
189.0542	2
207.06493	12
END IONS

BEGIN IONS
PEPMASS=291.08624
CHARGE=1
MSLEVEL=2
FILENAME=PhenolicsDB_Positive.mgf
SCANS=2
SEQ=*..*
IONMODE=Positive
ORGANISM=N/A
NAME=(-)-Epicatechin 40eV
PI=Jessica Cooperstone
DATACOLECTOR=DOI:10.5281/zenodo.8475
SMILES=C1C(C(OC2=CC(=CC(=C21)O)O)C3=CC(=C(C=C3)O)O)O
INCHI=PFTAWBLQPZVEMU-UKRRQHHQSA-N
INCHIAUX=N/A
PUBMED=N/A
LIBRARYQUALITY=1
105.03331	4
105.06966	3
107.04891	2
111.04397	11
115.05415	8
119.04917	16
123.04388	100
131.04907	2
133.06448	3
137.02329	3
139.03878	62
143.04883	7
147.04386	20
161.05918	8
163.03882	2
END IONS

BEGIN IONS
PEPMASS=149.05963
CHARGE=1
MSLEVEL=2
FILENAME=PhenolicsDB_Positive.mgf
SCANS=3
SEQ=*..*
IONMODE=Positive
ORGANISM=N/A
NAME=(E)-Cinnamic acid 20eV
PI=Jessica Cooperstone
DATACOLECTOR=DOI:10.5281/zenodo.8475
SMILES=C1=CC=C(C=C1)C=CC(=O)O
INCHI=WBYWAXJHAXSJNI-VOTSOKGWSA-N
INCHIAUX=N/A
PUBMED=N/A
LIBRARYQUALITY=1
103.05415	100
131.04902	23
END IONS

BEGIN IONS
PEPMASS=149.05963
CHARGE=1
MSLEVEL=2
FILENAME=PhenolicsDB_Positive.mgf
SCANS=4
SEQ=*..*
IONMODE=Positive
ORGANISM=N/A
NAME=(E)-Cinnamic acid 40eV
PI=Jessica Cooperstone
DATACOLECTOR=DOI:10.5281/zenodo.8475
SMILES=C1=CC=C(C=C1)C=CC(=O)O
INCHI=WBYWAXJHAXSJNI-VOTSOKGWSA-N
INCHIAUX=N/A
PUBMED=N/A
LIBRARYQUALITY=1
101.03749	2
102.04594	22
103.05396	100
END IONS

BEGIN IONS
PEPMASS=155.03381
CHARGE=1
MSLEVEL=2
FILENAME=PhenolicsDB_Positive.mgf
SCANS=7
SEQ=*..*
IONMODE=Positive
ORGANISM=N/A
NAME=2-3-Dihydroxybenzoic acid 20eV
PI=Jessica Cooperstone
DATACOLECTOR=DOI:10.5281/zenodo.8475
SMILES=C1=CC(=C(C(=C1)O)O)C(=O)O
INCHI=GLDQAMYCGOIJDV-UHFFFAOYSA-N
INCHIAUX=N/A
PUBMED=N/A
LIBRARYQUALITY=1
107.01254	14
109.02842	31
137.02314	100
END IONS

BEGIN IONS
PEPMASS=155.03381
CHARGE=1
MSLEVEL=2
FILENAME=PhenolicsDB_Positive.mgf
SCANS=8
SEQ=*..*
IONMODE=Positive
ORGANISM=N/A
NAME=2-3-Dihydroxybenzoic acid 40eV
PI=Jessica Cooperstone
DATACOLECTOR=DOI:10.5281/zenodo.8475
SMILES=C1=CC(=C(C(=C1)O)O)C(=O)O
INCHI=GLDQAMYCGOIJDV-UHFFFAOYSA-N
INCHIAUX=N/A
PUBMED=N/A
LIBRARYQUALITY=1
107.01238	100
108.01975	8
109.02772	32
118.9192	3
121.06388	2
137.0234	17
END IONS

BEGIN IONS
PEPMASS=155.03381
CHARGE=1
MSLEVEL=2
FILENAME=PhenolicsDB_Positive.mgf
SCANS=9
SEQ=*..*
IONMODE=Positive
ORGANISM=N/A
NAME=2-5-Dihydroxybenzoic acid 20eV
PI=Jessica Cooperstone
DATACOLECTOR=DOI:10.5281/zenodo.8475
SMILES=C1=CC(=C(C=C1O)C(=O)O)O
INCHI=WXTMDXOMEHJXQO-UHFFFAOYSA-N
INCHIAUX=N/A
PUBMED=N/A
LIBRARYQUALITY=1
109.02845	52
137.02343	100
END IONS

BEGIN IONS
PEPMASS=155.03381
CHARGE=1
MSLEVEL=2
FILENAME=PhenolicsDB_Positive.mgf
SCANS=10
SEQ=*..*
IONMODE=Positive
ORGANISM=N/A
NAME=2-5-Dihydroxybenzoic acid 40eV
PI=Jessica Cooperstone
DATACOLECTOR=DOI:10.5281/zenodo.8475
SMILES=C1=CC(=C(C=C1O)C(=O)O)O
INCHI=WXTMDXOMEHJXQO-UHFFFAOYSA-N
INCHIAUX=N/A
PUBMED=N/A
LIBRARYQUALITY=1
108.02013	100
109.02783	88
110.03682	17
137.02293	15
178.45161	3
662.44536	3
740.62013	2
906.43032	3
1664.0465	3
END IONS

BEGIN IONS
PEPMASS=155.03381
CHARGE=1
MSLEVEL=2
FILENAME=PhenolicsDB_Positive.mgf
SCANS=11
SEQ=*..*
IONMODE=Positive
ORGANISM=N/A
NAME=2-6-Dihydroxybenzoic acid 20eV
PI=Jessica Cooperstone
DATACOLECTOR=DOI:10.5281/zenodo.8475
SMILES=C1=CC(=C(C(=C1)O)C(=O)O)O
INCHI=AKEUNCKRJATALU-UHFFFAOYSA-N
INCHIAUX=N/A
PUBMED=N/A
LIBRARYQUALITY=1
107.01263	3
109.02824	5
137.02303	100
END IONS

BEGIN IONS
PEPMASS=155.03381
CHARGE=1
MSLEVEL=2
FILENAME=PhenolicsDB_Positive.mgf
SCANS=12
SEQ=*..*
IONMODE=Positive
ORGANISM=N/A
NAME=2-6-Dihydroxybenzoic acid 40eV
PI=Jessica Cooperstone
DATACOLECTOR=DOI:10.5281/zenodo.8475
SMILES=C1=CC(=C(C(=C1)O)C(=O)O)O
INCHI=AKEUNCKRJATALU-UHFFFAOYSA-N
INCHIAUX=N/A
PUBMED=N/A
LIBRARYQUALITY=1
107.01251	100
108.01899	2
109.02806	25
119.01253	3
137.0229	76
END IONS

BEGIN IONS
PEPMASS=155.03381
CHARGE=1
MSLEVEL=2
FILENAME=PhenolicsDB_Positive.mgf
SCANS=5
SEQ=*..*
IONMODE=Positive
ORGANISM=N/A
NAME=2,4,6-Trihydroxybenzaldehyde 20eV
PI=Jessica Cooperstone
DATACOLECTOR=DOI:10.5281/zenodo.8475
SMILES=COC1=CC(=C(C(=C1)OC)C=O)OC
INCHI=CRBZVDLXAIFERF-UHFFFAOYSA-N
INCHIAUX=N/A
PUBMED=N/A
LIBRARYQUALITY=1
109.02872	61
127.03918	61
137.0228	5
153.01822	44
155.03369	100
END IONS

BEGIN IONS
PEPMASS=155.03381
CHARGE=1
MSLEVEL=2
FILENAME=PhenolicsDB_Positive.mgf
SCANS=6
SEQ=*..*
IONMODE=Positive
ORGANISM=N/A
NAME=2,4,6-Trihydroxybenzaldehyde 40eV
PI=Jessica Cooperstone
DATACOLECTOR=DOI:10.5281/zenodo.8475
SMILES=COC1=CC(=C(C(=C1)OC)C=O)OC
INCHI=CRBZVDLXAIFERF-UHFFFAOYSA-N
INCHIAUX=N/A
PUBMED=N/A
LIBRARYQUALITY=1
107.01271	8
108.02068	24
109.02795	84
110.03672	6
111.00719	6
125.0215	5
126.03089	10
127.0386	22
137.02092	2
153.01744	100
155.0311	5
END IONS

BEGIN IONS
PEPMASS=155.03381
CHARGE=1
MSLEVEL=2
FILENAME=PhenolicsDB_Positive.mgf
SCANS=13
SEQ=*..*
IONMODE=Positive
ORGANISM=N/A
NAME=3-4-Dihydroxybenzoic acid 20eV
PI=Jessica Cooperstone
DATACOLECTOR=DOI:10.5281/zenodo.8475
SMILES=C1=CC(=C(C=C1C(=O)O)O)O
INCHI=YQUVCSBJEUQKSH-UHFFFAOYSA-N
INCHIAUX=N/A
PUBMED=N/A
LIBRARYQUALITY=1
107.01275	7
109.02843	93
110.03615	7
111.04402	19
137.02308	100
155.03495	2
END IONS

BEGIN IONS
PEPMASS=155.03381
CHARGE=1
MSLEVEL=2
FILENAME=PhenolicsDB_Positive.mgf
SCANS=14
SEQ=*..*
IONMODE=Positive
ORGANISM=N/A
NAME=3-4-Dihydroxybenzoic acid 40eV
PI=Jessica Cooperstone
DATACOLECTOR=DOI:10.5281/zenodo.8475
SMILES=C1=CC(=C(C=C1C(=O)O)O)O
INCHI=YQUVCSBJEUQKSH-UHFFFAOYSA-N
INCHIAUX=N/A
PUBMED=N/A
LIBRARYQUALITY=1
107.01268	45
108.02512	2
109.02843	67
110.03629	100
137.02287	11
1260.54706	2
END IONS

BEGIN IONS
PEPMASS=123.04398
CHARGE=1
MSLEVEL=2
FILENAME=PhenolicsDB_Positive.mgf
SCANS=15
SEQ=*..*
IONMODE=Positive
ORGANISM=N/A
NAME=3-Hydroxybenzaldehyde 20eV
PI=Jessica Cooperstone
DATACOLECTOR=DOI:10.5281/zenodo.8475
SMILES=C1=CC(=CC(=C1)O)C=O
INCHI=IAVREABSGIHHMO-UHFFFAOYSA-N
INCHIAUX=N/A
PUBMED=N/A
LIBRARYQUALITY=1
101.18454	2
102.9251	20
104.10067	4
105.06538	20
106.0262	15
106.91683	15
107.07445	7
107.89691	4
108.06466	19
115.95949	11
117.82212	3
118.91893	9
121.02886	35
121.80147	9
122.03639	5
122.05621	21
122.09411	13
122.11757	2
122.96224	5
123.05039	60
123.0862	100
123.15001	2
123.21202	5
124.33273	2
126.45575	4
127.24572	2
134.13162	2
135.87716	2
142.09603	2
142.88298	19
142.91401	2
144.81256	3
147.67601	4
148.84041	5
149.70332	2
163.89295	3
167.2736	2
167.93626	4
168.62089	5
171.18537	4
183.05936	2
185.83236	2
186.9244	2
195.35654	2
204.753	11
205.04172	4
206.9504	6
208.48033	2
214.70117	3
218.71976	2
222.95278	8
224.06468	2
224.56789	5
226.62279	2
227.19052	2
231.95279	4
237.39004	2
238.48295	2
244.05953	3
252.61894	2
256.55267	2
256.98731	2
262.71085	5
263.66785	3
264.22905	3
266.30219	4
268.00739	2
276.39254	2
280.4803	5
280.85379	4
283.40038	2
288.44491	3
299.90814	5
300.56594	4
301.9832	7
304.26254	5
306.18567	2
312.12664	2
314.28907	3
324.53811	6
326.04999	5
338.51515	2
341.98782	2
344.48092	4
346.32282	4
347.87125	2
351.51268	8
352.73883	2
362.82641	7
370.30548	2
371.85426	9
371.89437	2
378.33317	2
387.0651	3
392.04587	4
397.76611	2
408.65218	2
415.64137	2
415.90373	2
424.93098	3
431.56027	4
436.64267	2
443.1799	2
444.06804	12
445.14405	3
448.95632	11
457.81932	4
462.87473	3
464.90489	2
470.34958	4
471.85054	4
477.10802	4
479.38179	2
485.25486	5
485.40819	3
486.3435	6
490.16989	2
498.61342	2
507.38165	4
507.53047	6
508.57564	2
510.45483	3
512.17287	6
512.69446	5
526.38504	5
526.41403	2
537.71196	6
557.82988	2
560.02387	3
562.07608	4
569.79539	10
570.45879	4
585.85395	7
594.17245	3
595.0882	3
601.58834	8
603.60174	3
603.68721	2
604.58249	4
609.49593	3
622.57873	2
623.51634	2
626.06384	3
629.67954	3
642.0492	2
662.0856	5
666.78294	4
676.19293	3
683.86477	2
689.26929	6
701.29597	2
702.43351	2
703.57743	5
710.13925	8
711.2212	3
718.76763	5
726.96725	4
732.40372	4
742.22183	4
743.60524	5
750.72414	2
751.94501	2
755.50217	2
772.23907	2
778.66918	4
791.93216	2
795.4003	2
795.56668	9
801.22133	6
811.68067	2
820.013	3
822.3929	7
837.41796	2
846.88391	5
857.30212	3
872.52681	5
894.05842	7
900.53386	9
904.48543	6
909.84713	2
914.26266	5
916.01213	2
919.91204	5
923.52199	3
930.0516	2
935.31765	2
948.33199	6
949.20999	4
952.73804	2
958.61845	4
969.36157	2
972.41986	2
983.20512	8
996.33801	5
1003.57567	2
1004.6927	4
1008.89673	4
1010.12367	3
1013.57449	3
1014.98103	3
1022.67329	3
1030.16002	2
1030.60668	4
1033.13827	6
1034.02928	3
1037.86485	4
1047.2529	7
1049.68339	2
1057.59256	2
1063.74919	3
1075.69931	9
1105.64464	3
1116.66433	3
1119.01519	2
1127.66069	2
1132.14996	3
1136.65728	4
1148.64743	5
1166.19802	5
1179.30717	3
1186.58208	4
1192.67157	3
1206.34896	3
1209.24073	6
1215.03976	2
1260.89506	4
1264.59486	3
1272.88049	4
1278.02339	6
1286.21499	2
1327.06486	3
1340.34007	4
1349.7754	4
1375.37596	2
1381.97899	3
1384.65547	5
1388.84482	2
1391.92591	2
1392.78741	2
1393.07053	2
1401.21746	7
1421.36993	4
1439.71703	5
1471.75893	3
1493.1281	3
1493.59762	2
1523.23205	3
1542.90575	2
1548.46456	2
1573.55894	4
1581.04415	2
1651.34732	7
1655.4441	2
1655.81818	2
1677.26636	3
1679.85712	3
1698.0811	3
END IONS

BEGIN IONS
PEPMASS=123.04398
CHARGE=1
MSLEVEL=2
FILENAME=PhenolicsDB_Positive.mgf
SCANS=16
SEQ=*..*
IONMODE=Positive
ORGANISM=N/A
NAME=3-Hydroxybenzaldehyde 40eV
PI=Jessica Cooperstone
DATACOLECTOR=DOI:10.5281/zenodo.8475
SMILES=C1=CC(=CC(=C1)O)C=O
INCHI=IAVREABSGIHHMO-UHFFFAOYSA-N
INCHIAUX=N/A
PUBMED=N/A
LIBRARYQUALITY=1
102.92411	41
102.93769	26
103.14047	27
103.72145	21
107.06451	100
107.10724	3
108.26124	9
110.41733	22
110.51341	4
112.26398	8
121.76414	7
123.05417	43
123.08367	3
125.00493	2
126.54796	7
146.17053	5
149.01809	4
153.40043	4
164.58958	9
165.50108	15
168.03375	4
172.2092	16
172.2388	3
181.12193	11
198.9759	14
205.12128	4
206.5007	5
210.55803	7
226.58059	4
239.70517	9
246.38419	18
248.13948	6
248.56147	4
251.87018	5
253.62128	3
261.05663	23
261.56269	14
264.29114	16
264.81143	6
279.08464	7
280.13059	9
284.93928	4
289.00599	12
294.09464	7
304.35789	3
304.65263	16
318.52116	5
319.39849	10
321.91133	6
332.03322	3
337.59732	21
342.59287	11
343.77104	7
356.16239	8
357.25386	4
360.63042	14
362.9223	13
363.49226	19
363.54383	2
365.65022	10
368.77155	18
390.70237	13
404.63376	19
407.24782	10
415.76406	10
426.34796	29
429.48007	9
433.76947	10
439.49251	12
444.11084	21
448.63515	11
455.1409	12
459.30127	4
462.98614	4
464.52178	3
470.96345	20
480.63119	6
490.8677	14
504.96956	12
510.28169	11
520.45036	6
532.83464	11
533.14749	10
537.67049	11
568.10196	13
569.51637	30
569.99965	8
575.79478	4
579.58114	16
579.61517	4
584.2473	9
596.19618	19
598.52882	7
600.34123	9
605.50605	8
612.77005	29
620.88588	11
633.16506	5
642.04316	10
642.27253	7
651.35128	11
683.0067	3
687.44	10
692.96747	9
734.44432	13
765.28656	2
778.80484	30
789.57568	5
798.42408	8
805.5927	9
811.16775	12
830.49712	11
849.50662	19
853.28037	8
856.13721	12
856.68311	10
863.1878	2
867.38697	6
876.79383	8
879.5785	5
880.75147	15
882.82804	3
891.10313	4
906.90788	4
925.92199	6
930.44591	4
936.48088	51
938.38663	8
952.03948	6
964.44051	9
973.26228	4
979.61812	10
989.39932	9
993.55677	10
1003.34124	11
1022.739	9
1031.35378	10
1032.42076	13
1040.84597	11
1044.30455	10
1078.18729	8
1083.97216	6
1084.22485	11
1093.75459	10
1105.26924	12
1120.71092	2
1126.44588	13
1132.94492	7
1136.15407	8
1138.1346	22
1150.33307	19
1153.08607	38
1158.2148	17
1164.30305	10
1169.36595	4
1170.82947	3
1185.76704	20
1188.99682	17
1195.49421	4
1205.53085	7
1226.89316	13
1229.59352	12
1241.45735	7
1273.21391	10
1283.00868	8
1292.04159	5
1306.79921	14
1340.00691	5
1343.53558	6
1359.33801	23
1379.39853	2
1445.59205	7
1449.99841	14
1460.62743	25
1464.2936	16
1467.32051	13
1487.13883	6
1503.50853	8
1508.41711	7
1530.86572	11
1550.82269	15
1552.02222	14
1556.64839	3
1566.19347	8
1582.368	20
1592.40087	21
1613.04692	10
1633.05319	19
1635.27415	26
1635.31931	4
1636.00919	6
1638.71959	7
1650.25685	9
END IONS

BEGIN IONS
PEPMASS=317.06561
CHARGE=1
MSLEVEL=2
FILENAME=PhenolicsDB_Positive.mgf
SCANS=17
SEQ=*..*
IONMODE=Positive
ORGANISM=N/A
NAME=3-O-methyl Quercetin 20eV
PI=Jessica Cooperstone
DATACOLECTOR=DOI:10.5281/zenodo.8475
SMILES=OC1=CC(O)=C2C(OC(C3=CC=C(O)C(O)=C3)=C(OC)C2=O)=C1
INCHI=WEPBGSIAWZTEJR-UHFFFAOYSA-N
INCHIAUX=N/A
PUBMED=N/A
LIBRARYQUALITY=1
274.04709	2
301.03453	3
302.04393	91
317.06747	100
END IONS

BEGIN IONS
PEPMASS=317.06561
CHARGE=1
MSLEVEL=2
FILENAME=PhenolicsDB_Positive.mgf
SCANS=18
SEQ=*..*
IONMODE=Positive
ORGANISM=N/A
NAME=3-O-methyl Quercetin 40eV
PI=Jessica Cooperstone
DATACOLECTOR=DOI:10.5281/zenodo.8475
SMILES=OC1=CC(O)=C2C(OC(C3=CC=C(O)C(O)=C3)=C(OC)C2=O)=C1
INCHI=WEPBGSIAWZTEJR-UHFFFAOYSA-N
INCHIAUX=N/A
PUBMED=N/A
LIBRARYQUALITY=1
68.99687	2
81.03326	2
92.02558	3
108.02048	3
109.02831	4
110.03624	11
121.02851	2
136.01552	11
137.02344	22
150.03111	2
153.01827	9
165.01814	2
193.01296	4
200.04686	11
203.03377	3
204.04168	3
215.0339	2
217.04953	5
218.05734	2
227.03394	2
228.04204	25
229.04974	15
231.0288	2
245.04473	14
246.05219	2
256.03647	4
257.04455	9
273.03958	7
274.0475	21
285.03947	9
301.03572	100
301.07449	4
302.04259	27
END IONS

BEGIN IONS
PEPMASS=317.06561
CHARGE=1
MSLEVEL=2
FILENAME=PhenolicsDB_Positive.mgf
SCANS=19
SEQ=*..*
IONMODE=Positive
ORGANISM=N/A
NAME=3-O-methyl Quercetin 60eV
PI=Jessica Cooperstone
DATACOLECTOR=DOI:10.5281/zenodo.8475
SMILES=OC1=CC(O)=C2C(OC(C3=CC=C(O)C(O)=C3)=C(OC)C2=O)=C1
INCHI=WEPBGSIAWZTEJR-UHFFFAOYSA-N
INCHIAUX=N/A
PUBMED=N/A
LIBRARYQUALITY=1
50.01442	3
51.02228	2
52.03007	3
53.00148	2
53.03794	28
53.04314	2
54.04557	2
55.01723	27
55.02261	2
63.02235	7
64.03009	11
65.03794	13
66.0459	14
67.01737	29
67.02313	2
68.02509	2
68.9966	69
69.00213	3
69.03302	8
75.02256	2
76.03038	8
77.03816	6
78.00967	2
78.0459	2
79.01747	3
79.05369	3
80.02524	2
81.03307	71
81.039	4
82.04081	6
83.01247	2
89.03807	2
91.01746	7
91.05379	7
92.02524	16
93.03299	6
94.04091	9
95.01234	3
96.02005	5
97.02794	2
101.03799	2
102.04616	5
103.05378	11
104.02531	2
105.03322	5
105.0698	4
107.01235	12
107.04848	2
108.02025	65
108.02716	3
109.02811	74
109.03464	4
110.0359	48
110.04291	3
111.00733	6
115.05387	39
115.06117	3
116.0618	13
117.06971	3
118.041	4
119.01249	3
119.04886	3
120.02028	2
121.02802	16
121.06442	2
122.03593	3
123.04364	2
124.01536	8
126.03099	2
126.04612	8
127.05399	11
128.06178	4
129.03357	2
130.04053	3
131.04868	17
133.02811	2
133.06434	4
134.03571	2
135.00745	2
136.0153	22
137.02317	100
137.0297	5
139.05371	2
143.04893	8
144.0567	16
145.02811	2
145.06463	4
146.03561	2
147.04377	13
149.02286	2
149.05936	2
150.03079	6
152.01007	3
153.018	31
153.02673	2
153.03353	2
154.04091	10
155.04896	23
157.02792	4
157.06458	3
158.03569	2
159.04362	10
161.02293	3
161.05935	9
163.03833	5
165.01802	6
171.04388	36
171.05307	2
172.05152	7
173.05933	7
174.03074	2
175.03866	11
176.04645	3
177.01779	3
177.05443	4
179.03374	2
183.04377	13
185.02302	2
187.03865	12
189.05421	8
192.04136	3
193.0128	27
193.02274	2
199.03872	18
199.04852	2
200.04658	23
200.05636	2
201.05401	4
202.02545	3
203.03369	30
203.04363	2
204.04129	2
211.03857	6
215.03358	3
216.04119	2
217.04937	23
217.06024	2
227.03368	35
227.04381	3
228.04143	16
229.04927	29
229.05951	3
231.02833	3
232.03617	3
239.03331	2
245.04419	30
245.05479	2
255.02834	14
256.03617	2
257.04431	8
259.02323	6
273.03916	8
283.02365	3
285.03903	5
301.0342	45
301.04567	4
END IONS

BEGIN IONS
PEPMASS=317.06561
CHARGE=1
MSLEVEL=2
FILENAME=PhenolicsDB_Positive.mgf
SCANS=20
SEQ=*..*
IONMODE=Positive
ORGANISM=N/A
NAME=3-O-methyl Quercetin 80eV
PI=Jessica Cooperstone
DATACOLECTOR=DOI:10.5281/zenodo.8475
SMILES=OC1=CC(O)=C2C(OC(C3=CC=C(O)C(O)=C3)=C(OC)C2=O)=C1
INCHI=WEPBGSIAWZTEJR-UHFFFAOYSA-N
INCHIAUX=N/A
PUBMED=N/A
LIBRARYQUALITY=1
50.01444	12
51.02235	9
52.03006	5
53.00149	3
53.038	55
53.04263	3
55.01725	50
55.02204	3
62.01461	2
63.0224	20
64.03021	15
65.03801	27
65.04386	2
66.04585	12
67.0173	16
68.02527	2
68.99669	100
69.0019	5
69.03291	6
74.01461	2
75.02248	10
76.03022	12
77.00163	2
77.03813	24
77.04417	2
78.00951	3
78.04585	2
79.01738	6
79.05365	3
81.03313	73
81.03891	4
82.04096	2
89.03816	11
90.04602	2
91.01749	9
91.05374	14
92.02528	9
93.03306	7
94.04085	2
95.0122	3
96.02015	4
97.0279	2
99.02245	3
101.03821	9
102.04594	7
103.0539	13
105.03306	4
105.06944	3
107.01237	10
108.02022	25
108.02764	2
109.02809	29
109.03557	2
110.03585	11
111.00743	3
113.03839	2
114.04603	2
115.05395	63
115.06071	3
116.06177	3
118.04095	4
119.01235	2
119.04915	2
121.02818	10
124.01526	2
125.03834	5
126.04593	14
127.0539	16
128.06164	3
129.0332	4
131.04881	10
136.01502	2
137.02308	19
143.04888	5
144.05664	3
147.04375	6
153.01791	6
153.03293	2
154.04077	3
155.04888	14
157.02801	3
159.04356	3
171.04374	17
175.03818	2
183.04334	2
185.02333	2
187.03859	2
193.01249	2
199.03838	2
203.03343	4
227.03368	4
END IONS

BEGIN IONS
PEPMASS=123.04398
CHARGE=1
MSLEVEL=2
FILENAME=PhenolicsDB_Positive.mgf
SCANS=21
SEQ=*..*
IONMODE=Positive
ORGANISM=N/A
NAME=4-Hydroxybenzaldehyde 20eV
PI=Jessica Cooperstone
DATACOLECTOR=DOI:10.5281/zenodo.8475
SMILES=C1=CC(=CC=C1C=O)O
INCHI=RGHHSNMVTDWUBI-UHFFFAOYSA-N
INCHIAUX=N/A
PUBMED=N/A
LIBRARYQUALITY=1
121.02785	2
122.03202	3
123.04416	100
END IONS

BEGIN IONS
PEPMASS=271.06012
CHARGE=1
MSLEVEL=2
FILENAME=PhenolicsDB_Positive.mgf
SCANS=22
SEQ=*..*
IONMODE=Positive
ORGANISM=N/A
NAME=Apigenin 20eV
PI=Jessica Cooperstone
DATACOLECTOR=DOI:10.5281/zenodo.8475
SMILES=Oc1ccc(cc1)c1cc(=O)c2c(O)cc(O)cc2o1
INCHI=KZNIFHPLKGYRTM-UHFFFAOYSA-N
INCHIAUX=N/A
PUBMED=N/A
LIBRARYQUALITY=1
153.01849	3
271.06193	100
END IONS

BEGIN IONS
PEPMASS=271.06012
CHARGE=1
MSLEVEL=2
FILENAME=PhenolicsDB_Positive.mgf
SCANS=23
SEQ=*..*
IONMODE=Positive
ORGANISM=N/A
NAME=Apigenin 40eV
PI=Jessica Cooperstone
DATACOLECTOR=DOI:10.5281/zenodo.8475
SMILES=Oc1ccc(cc1)c1cc(=O)c2c(O)cc(O)cc2o1
INCHI=KZNIFHPLKGYRTM-UHFFFAOYSA-N
INCHIAUX=N/A
PUBMED=N/A
LIBRARYQUALITY=1
55.01754	2
65.03844	8
67.01783	32
67.02323	2
68.99712	34
69.00273	2
69.03341	6
81.03364	2
83.01293	2
91.05444	49
91.06037	3
93.03365	4
97.02841	5
109.02864	2
111.00787	3
115.05452	5
117.03392	2
119.04953	51
119.05653	3
121.02868	20
125.02342	3
131.04957	2
141.07021	6
145.02881	20
153.01891	100
153.02684	4
153.04748	4
155.04947	4
163.03946	6
168.05726	2
169.06513	4
187.03946	2
197.06027	4
225.05506	3
229.05005	3
243.06557	6
253.04997	2
271.0608	32
271.07063	2
END IONS

BEGIN IONS
PEPMASS=271.06012
CHARGE=1
MSLEVEL=2
FILENAME=PhenolicsDB_Positive.mgf
SCANS=24
SEQ=*..*
IONMODE=Positive
ORGANISM=N/A
NAME=Apigenin 60eV
PI=Jessica Cooperstone
DATACOLECTOR=DOI:10.5281/zenodo.8475
SMILES=Oc1ccc(cc1)c1cc(=O)c2c(O)cc(O)cc2o1
INCHI=KZNIFHPLKGYRTM-UHFFFAOYSA-N
INCHIAUX=N/A
PUBMED=N/A
LIBRARYQUALITY=1
51.02245	5
53.03811	2
55.0174	10
63.02253	11
65.03828	68
65.04361	3
67.01757	28
67.02342	2
68.9969	100
69.00187	5
69.0332	19
75.02273	3
77.03826	8
79.01759	6
81.03327	3
83.0127	4
89.0383	13
91.01768	2
91.05411	66
91.05993	3
92.99697	2
93.03327	11
97.02812	6
101.03854	3
111.00742	2
115.05422	22
117.03344	10
119.04907	7
121.02849	10
127.05442	2
128.06184	2
131.04898	3
139.05421	6
140.06202	2
141.06997	3
145.02857	18
150.04618	2
151.05439	2
152.06185	2
153.01835	19
153.02744	2
155.04918	5
168.0571	3
END IONS

BEGIN IONS
PEPMASS=271.06012
CHARGE=1
MSLEVEL=2
FILENAME=PhenolicsDB_Positive.mgf
SCANS=25
SEQ=*..*
IONMODE=Positive
ORGANISM=N/A
NAME=Apigenin 80eV
PI=Jessica Cooperstone
DATACOLECTOR=DOI:10.5281/zenodo.8475
SMILES=Oc1ccc(cc1)c1cc(=O)c2c(O)cc(O)cc2o1
INCHI=KZNIFHPLKGYRTM-UHFFFAOYSA-N
INCHIAUX=N/A
PUBMED=N/A
LIBRARYQUALITY=1
51.02248	14
53.00171	3
53.03821	3
55.01734	9
62.01469	3
63.02259	34
63.02807	2
65.00188	3
65.03831	72
65.04392	4
67.01745	8
68.99689	100
69.00204	6
69.03314	6
74.01485	2
75.0225	8
77.00166	2
77.03833	12
79.01768	3
87.02258	2
89.03835	16
91.05405	18
93.03337	4
99.02262	3
101.03839	3
113.03852	2
115.05424	15
117.03356	5
126.04625	2
128.06192	2
139.05434	10
145.02813	2
150.04637	3
END IONS

BEGIN IONS
PEPMASS=177.03928
CHARGE=1
MSLEVEL=2
FILENAME=PhenolicsDB_Positive.mgf
SCANS=26
SEQ=*..*
IONMODE=Positive
ORGANISM=N/A
NAME=Ascorbic acid 20eV
PI=Jessica Cooperstone
DATACOLECTOR=DOI:10.5281/zenodo.8475
SMILES=C(C(C1C(=C(C(=O)O1)O)O)O)O
INCHI=CIWBSHSKHKDKBQ-JLAZNSOCSA-N
INCHIAUX=N/A
PUBMED=N/A
LIBRARYQUALITY=1
115.00137	44
116.00474	11
117.00547	100
177.02763	4
END IONS

BEGIN IONS
PEPMASS=177.03928
CHARGE=1
MSLEVEL=2
FILENAME=PhenolicsDB_Positive.mgf
SCANS=27
SEQ=*..*
IONMODE=Positive
ORGANISM=N/A
NAME=Ascorbic acid 40eV
PI=Jessica Cooperstone
DATACOLECTOR=DOI:10.5281/zenodo.8475
SMILES=C(C(C1C(=C(C(=O)O1)O)O)O)O
INCHI=CIWBSHSKHKDKBQ-JLAZNSOCSA-N
INCHIAUX=N/A
PUBMED=N/A
LIBRARYQUALITY=1
100.47384	26
100.48711	6
100.58588	51
100.60832	7
101.11428	13
101.34677	16
102.00922	7
103.74094	25
104.61973	13
105.7588	8
107.16273	8
107.44215	6
107.87889	14
108.31969	4
109.00825	26
109.06278	11
109.13228	28
109.17926	2
109.89588	7
110.51272	10
111.3184	6
111.41995	6
114.06435	7
114.18689	13
114.20176	5
114.41364	6
114.46962	5
114.90509	12
115.24478	5
115.59685	16
117.29806	11
117.96669	20
118.25756	6
118.36727	4
119.89701	12
120.54137	5
121.13719	21
121.44444	3
121.51623	13
121.9995	3
123.33574	2
123.67577	6
124.0939	30
126.99989	7
128.13488	10
129.59912	5
130.72583	20
131.07054	9
133.49256	5
133.65184	5
134.6909	10
135.58183	35
135.69956	4
137.00264	17
137.89346	11
138.21764	12
138.60799	47
138.6413	5
138.73172	4
138.93656	8
140.78393	11
143.28138	5
144.0774	7
144.93836	4
146.35219	17
146.66893	8
147.44154	11
148.22176	6
148.42308	100
148.51247	2
148.85741	26
149.87998	7
150.23948	31
151.01588	10
151.48625	8
152.74016	4
153.03368	3
153.37633	15
156.45168	12
157.32718	11
159.3742	6
160.15516	31
160.65582	51
160.68992	5
160.79807	11
161.30642	5
161.44025	5
162.37373	7
163.41564	60
166.66364	34
169.32695	8
171.76757	43
172.27981	4
172.41629	10
172.90983	5
173.45997	5
173.66491	2
174.09715	24
174.94307	6
175.02069	13
175.27935	14
175.74331	5
176.06456	11
177.57368	21
177.58846	8
178.00886	11
178.12051	30
178.80917	5
181.07428	8
181.11991	6
184.5368	14
184.61124	40
185.06233	7
185.12294	13
185.24807	3
186.3616	16
186.82293	22
187.40317	8
187.79388	6
188.4039	13
188.51784	24
188.53449	13
189.00276	6
189.15862	7
190.42318	2
190.6058	29
191.17525	17
192.59344	13
192.7461	13
194.1161	4
194.9138	8
196.66106	46
198.85299	10
199.10341	7
199.25627	5
199.41772	10
201.42852	87
201.4747	10
204.2314	66
204.27345	11
204.29802	3
205.34297	8
206.19915	24
206.43548	12
206.60294	13
206.92541	9
208.57447	28
209.56962	18
210.76923	13
212.46869	8
213.15854	6
214.13971	14
214.77671	38
215.0412	2
215.89179	28
215.91867	8
216.70223	2
218.81466	18
218.86124	8
225.65179	10
226.03298	2
226.45208	22
227.68443	39
227.77198	38
227.95658	19
230.43801	23
230.46935	5
230.64568	3
231.68778	15
232.80045	13
233.39826	61
233.46347	3
234.13416	66
234.30405	23
236.34098	4
237.12012	8
238.43574	8
240.59339	17
240.96018	13
241.10596	8
241.31127	18
244.04776	39
244.89045	21
245.5478	8
246.28623	3
247.31793	57
247.38458	3
249.92553	5
250.43937	16
250.54731	15
251.58081	21
251.61474	10
253.62796	20
255.17591	6
255.30289	15
257.40673	8
258.6969	15
262.33346	15
262.50257	15
263.20634	35
263.25516	2
263.53607	3
264.10159	8
264.50497	16
264.54825	5
265.03233	10
265.32675	5
266.61503	8
267.80177	9
268.44535	9
269.60329	35
269.79169	7
270.03143	8
271.05479	10
271.49025	6
272.18366	2
273.5792	20
274.12089	21
274.92236	5
275.16871	13
275.55557	6
276.49138	12
276.77645	48
277.62006	6
277.66701	29
277.71535	2
280.99814	7
281.70146	8
283.70082	6
285.21944	12
285.90458	31
287.49147	3
288.25165	4
288.7893	62
288.8406	3
288.9782	8
289.3211	2
290.03761	7
291.44879	11
292.11925	5
293.28646	28
293.48585	9
295.09382	6
297.23621	22
298.59125	17
299.48166	29
299.52222	3
299.66943	41
299.75071	2
303.56496	44
304.02813	12
305.24192	8
305.64906	3
307.72054	25
310.55579	10
310.57297	4
311.67816	10
312.16372	33
313.86912	7
314.01678	5
316.0513	8
316.75336	17
318.48536	2
321.37739	11
322.46265	13
323.06856	11
325.7928	5
328.27136	16
330.95928	15
331.40981	15
332.24529	10
335.57105	34
335.63733	2
336.76572	7
336.96831	71
337.02839	4
337.32114	6
339.60994	18
346.90984	22
348.329	14
349.53733	17
350.08114	18
354.08623	2
354.82886	11
355.47754	7
356.16619	12
357.67246	12
358.19007	3
358.72328	5
360.35192	16
362.15578	3
362.30945	7
362.8906	12
366.56261	9
366.90215	12
369.87873	7
371.70711	20
371.94789	33
371.96948	14
373.18918	7
374.05356	14
374.0848	33
377.3653	14
379.26338	9
381.13661	6
382.1219	5
384.30626	8
387.1334	4
388.80424	18
389.39419	10
390.85836	29
391.87502	8
392.74953	5
393.30096	13
396.01531	8
398.19803	31
398.95271	4
404.35191	8
404.56819	4
405.74744	6
407.76558	20
408.32874	12
409.5756	19
409.62049	4
410.95369	2
412.93721	6
413.8269	35
413.86958	4
416.19359	14
416.39379	46
416.44852	4
416.4769	2
416.82572	86
416.93153	3
417.21341	42
417.44145	5
419.99477	2
426.92159	33
427.00506	2
428.4396	13
437.39551	13
438.48692	6
440.62203	15
440.64242	5
441.20827	10
443.01987	13
444.2975	14
444.47087	17
446.51316	12
447.87779	6
449.80046	32
451.07699	24
453.87255	4
454.7778	6
456.02321	12
460.00509	3
461.1088	14
461.87637	38
464.66917	9
468.07261	8
470.77497	12
473.02572	5
475.04833	4
476.26062	17
476.2906	2
479.13263	13
480.70176	13
483.77111	6
485.83811	3
486.33755	23
487.71759	20
488.09613	13
488.33246	5
490.0743	9
490.33942	14
490.62433	7
490.92969	4
490.94784	6
491.40374	21
491.67695	6
491.76667	41
493.43193	22
496.11766	28
496.72734	6
499.24257	4
501.0451	7
501.5756	14
502.41581	8
503.05446	6
506.58606	20
508.52916	10
509.74838	32
510.05187	14
511.13284	8
512.24405	8
518.45065	15
518.55192	8
518.75671	4
520.70001	14
521.91493	11
523.04182	3
523.82933	11
523.91529	4
525.63474	7
526.83368	10
527.83695	8
533.67957	17
534.43438	7
534.80787	18
537.11309	3
539.21144	6
542.52679	16
542.88639	30
545.93342	19
547.41302	10
547.96281	6
548.30818	7
548.50244	8
549.53007	5
549.72704	2
550.18021	5
550.54088	40
551.24219	7
553.97043	9
558.29422	4
558.52344	9
561.84414	30
564.66249	3
566.76443	35
571.39118	9
571.54079	18
574.06883	47
577.62898	3
580.00695	6
580.75429	9
581.0895	6
581.3745	10
583.85864	11
584.69158	10
594.27703	25
594.59336	11
601.54082	5
601.89908	3
602.82901	6
603.9225	19
606.31717	6
606.51562	4
607.31926	4
608.70261	44
608.77677	3
609.40386	7
610.88896	7
611.26795	19
612.21308	18
613.67644	4
613.85629	14
617.63784	4
619.74324	17
621.1581	3
621.81389	20
622.02501	3
626.94272	8
629.66186	17
633.9983	6
637.81971	27
645.35807	5
646.64141	34
646.69155	4
647.66764	5
648.94404	26
650.5798	51
654.01173	4
656.45517	7
657.29354	7
657.56906	14
659.35454	25
659.86291	8
662.31146	9
664.07594	10
664.54181	8
668.46606	11
669.7063	22
671.30514	10
671.64144	8
672.13374	25
672.18348	3
673.88699	6
675.68176	23
680.74243	5
681.85235	9
683.37959	11
684.72666	34
686.84202	6
688.45342	4
691.69378	9
694.21978	14
694.82283	6
701.54335	19
702.58005	6
703.68	24
705.38582	9
705.69372	3
708.36208	12
709.50951	4
710.33578	25
712.92477	3
714.26923	5
718.51478	14
719.21236	9
720.40595	2
723.48892	2
724.80811	6
730.04611	9
730.50113	5
732.42885	3
734.34829	5
738.69207	23
745.95273	4
746.19286	10
746.86662	13
748.22729	11
749.36743	43
749.42882	4
749.47363	2
749.63535	4
750.37829	2
754.02149	5
754.92389	5
756.60087	8
757.064	41
758.11376	4
759.18643	30
759.6169	13
762.14842	3
762.30204	8
763.3007	14
766.90884	13
767.76652	78
767.9293	12
769.02693	8
771.25582	6
772.43932	6
773.16814	4
773.72487	8
773.97151	4
774.31023	8
774.46974	18
776.68278	15
783.07949	7
784.59977	38
784.64821	11
784.69449	2
789.00201	21
789.06391	3
790.10194	14
796.08357	10
797.50645	23
797.60604	14
797.6599	8
800.36219	4
800.77088	9
800.88741	16
801.696	16
802.56255	12
802.83632	12
802.94652	7
803.95299	17
805.93476	14
808.65145	12
810.75497	10
817.85846	8
818.24373	7
821.73399	9
827.95661	5
828.19988	12
831.4481	5
832.40417	13
833.03456	6
834.77339	10
835.16559	18
836.36381	33
841.66979	23
841.78984	11
842.81577	3
844.58354	2
846.6226	61
848.37044	22
848.51144	4
848.59184	2
859.89275	10
860.06374	5
860.60037	29
864.23674	17
873.95601	19
875.01761	17
875.96287	13
877.74834	10
880.98271	7
881.34396	8
885.77813	11
888.58935	8
892.14001	50
892.81784	6
893.00283	9
893.68424	71
893.77429	4
893.83925	3
893.87082	7
894.06558	16
894.51205	5
894.58617	3
895.66671	12
898.71812	12
901.77532	36
902.39747	10
907.85114	5
908.95765	13
910.86858	15
915.23076	6
915.84254	19
918.55765	4
918.68313	9
923.93822	57
926.54141	11
929.34105	37
932.38292	30
932.46696	3
933.49741	3
934.20009	2
935.09858	3
938.0919	17
938.23647	20
938.73285	9
940.82006	10
946.53459	12
947.45534	5
948.13791	15
952.4064	26
959.32799	12
960.00693	17
960.57627	13
963.43673	4
965.28439	7
966.40582	3
967.08653	4
968.64458	11
970.3005	10
972.99733	3
974.38777	15
974.87991	4
975.27804	13
976.4184	5
978.26632	19
979.71348	3
982.82204	61
982.90481	11
983.88089	12
986.14821	16
986.60091	6
986.73425	6
990.45253	3
993.34675	9
994.40525	8
994.59314	6
995.6007	7
996.10159	4
997.5523	10
997.60626	3
998.01572	10
1002.54655	11
1003.94402	26
1005.13702	18
1005.80909	12
1008.88637	14
1014.54146	38
1015.23476	3
1016.49918	3
1017.52841	3
1031.71519	20
1031.79807	6
1031.89859	2
1035.80281	37
1037.36741	5
1038.88242	4
1039.29205	2
1045.85171	26
1049.44183	10
1051.18724	8
1056.12332	53
1057.66779	5
1057.78192	9
1058.36617	11
1059.33051	4
1062.38923	10
1062.50238	11
1063.32909	3
1063.86767	26
1064.69208	23
1064.78075	2
1065.99557	12
1066.87221	3
1067.25549	16
1069.91671	3
1070.31389	31
1070.38717	3
1070.97307	2
1072.81307	13
1074.29023	43
1074.37679	4
1074.52703	14
1076.71696	52
1076.84441	3
1077.30024	44
1080.60194	13
1081.71835	16
1082.02342	4
1082.10719	2
1085.04867	13
1085.44948	13
1086.42702	34
1088.03718	5
1088.36112	27
1092.83923	2
1094.87934	5
1099.47917	25
1102.47403	77
1102.56787	7
1107.89025	11
1110.13152	19
1110.35657	4
1110.64476	19
1112.79017	6
1114.54539	17
1116.07922	3
1123.50197	85
1123.65977	2
1123.92993	9
1127.00931	11
1127.1774	13
1131.42621	9
1131.74016	20
1134.70288	8
1136.87349	5
1138.99356	4
1139.35721	6
1141.39211	14
1141.75961	12
1143.16282	6
1146.85837	16
1151.94967	13
1169.7839	7
1169.96362	27
1170.85967	3
1175.26552	39
1176.24413	16
1179.25096	13
1179.56142	10
1179.82688	4
1180.3745	10
1180.43329	3
1181.1436	26
1181.21415	4
1181.41305	15
1188.72775	10
1190.75101	2
1195.73729	5
1198.09494	5
1198.36363	45
1201.79805	21
1204.31011	31
1204.43623	2
1208.87814	16
1210.55925	3
1215.06303	17
1216.01876	8
1218.01213	9
1222.62577	6
1225.20197	6
1230.13493	34
1230.60624	23
1231.60706	18
1233.18586	9
1233.45802	29
1236.61003	3
1237.31385	23
1237.35907	17
1240.68489	11
1244.07029	12
1246.05656	9
1247.42976	4
1248.88916	32
1249.16891	7
1249.27245	9
1251.88132	27
1257.13379	6
1261.50847	23
1261.62501	13
1261.69203	20
1262.39759	11
1262.63556	12
1266.16528	9
1266.34332	38
1266.44985	3
1270.09577	39
1270.8961	17
1277.32451	8
1280.76887	23
1286.48507	17
1287.18509	14
1289.91841	3
1293.0551	29
1293.12976	2
1294.70119	8
1296.9334	10
1298.29859	6
1298.83778	9
1299.10127	5
1299.43926	24
1305.24	39
1310.54207	9
1314.21914	27
1314.43847	13
1314.82496	3
1314.90386	12
1315.47614	5
1315.78344	15
1315.96001	4
1319.55252	9
1322.65333	4
1325.95571	5
1327.70361	11
1329.62991	5
1331.41798	49
1332.42329	9
1333.06506	4
1335.23952	10
1338.20327	38
1339.67206	6
1344.50886	16
1345.0629	2
1345.52778	34
1345.76789	8
1348.31936	11
1349.63424	12
1350.81377	31
1354.51848	9
1355.73726	12
1356.63037	7
1362.46402	12
1362.58869	22
1364.27725	17
1366.53462	10
1368.18066	3
1370.63402	22
1371.43887	30
1371.53577	3
1372.89167	13
1399.01249	6
1402.56916	11
1402.83922	33
1403.51177	7
1404.51808	7
1404.98806	8
1412.02491	19
1412.67913	12
1416.40158	7
1420.49757	6
1422.93894	17
1423.00515	2
1423.16165	5
1427.31001	17
1427.95324	8
1433.97502	17
1435.79459	7
1439.36814	8
1439.53865	12
1440.75367	12
1441.64952	8
1441.91376	9
1443.3271	4
1444.00086	11
1444.92971	16
1447.1868	11
1454.9945	3
1459.26015	3
1461.28104	8
1464.00682	9
1464.18118	6
1465.50092	8
1468.32064	14
1470.99961	3
1478.34488	31
1479.22641	19
1485.74367	6
1486.64312	3
1487.36713	11
1488.41055	4
1491.24528	28
1491.61578	50
1491.76858	2
1494.63034	2
1496.65236	11
1501.40315	23
1513.48606	38
1513.6261	13
1521.05909	6
1521.11966	2
1521.56023	90
1521.78388	3
1523.51642	7
1524.02412	21
1524.36351	38
1524.49805	2
1525.21736	20
1527.32298	6
1534.90084	10
1535.48473	6
1536.4678	4
1539.19695	14
1539.2491	8
1541.56765	25
1545.92655	10
1560.01257	13
1564.47926	14
1569.08404	58
1569.72298	5
1569.81901	13
1569.96563	18
1571.54143	6
1573.90795	3
1577.4048	10
1578.97661	6
1584.55967	12
1585.0667	7
1585.17348	24
1585.21576	12
1586.41708	45
1586.54617	2
1586.6427	2
1589.79525	15
1592.42314	2
1595.40757	10
1600.24436	4
1602.62616	27
1605.3387	6
1606.52964	15
1609.00457	10
1609.64349	57
1614.57047	7
1616.99192	11
1622.45402	72
1622.95432	6
1626.19895	19
1626.61997	11
1627.29844	7
1627.76923	9
1629.49093	15
1630.71024	14
1633.60205	2
1649.89275	16
1651.68382	11
1664.93434	15
1670.34741	5
1671.01793	2
1672.56257	15
1676.51683	7
1679.76654	12
1686.41762	14
1686.92528	12
1689.88212	25
1690.3821	15
1691.0977	9
1694.1445	2
1695.33458	14
1698.4168	4
END IONS

BEGIN IONS
PEPMASS=449.10776
CHARGE=1
MSLEVEL=2
FILENAME=PhenolicsDB_Positive.mgf
SCANS=28
SEQ=*..*
IONMODE=Positive
ORGANISM=N/A
NAME=Astragalin 20eV
PI=Jessica Cooperstone
DATACOLECTOR=DOI:10.5281/zenodo.8475
SMILES=C1=CC(=CC=C1C2=C(C(=O)C3=C(C=C(C=C3O2)O)O)OC4C(C(C(C(O4)CO)O)O)O)O
INCHI=JPUKWEQWGBDDQB-QSOFNFLRSA-N
INCHIAUX=N/A
PUBMED=N/A
LIBRARYQUALITY=1
127.03857	2
145.04916	2
287.05498	100
288.05786	3
END IONS

BEGIN IONS
PEPMASS=449.10776
CHARGE=1
MSLEVEL=2
FILENAME=PhenolicsDB_Positive.mgf
SCANS=29
SEQ=*..*
IONMODE=Positive
ORGANISM=N/A
NAME=Astragalin 40eV
PI=Jessica Cooperstone
DATACOLECTOR=DOI:10.5281/zenodo.8475
SMILES=C1=CC(=CC=C1C2=C(C(=O)C3=C(C=C(C=C3O2)O)O)OC4C(C(C(C(O4)CO)O)O)O)O
INCHI=JPUKWEQWGBDDQB-QSOFNFLRSA-N
INCHIAUX=N/A
PUBMED=N/A
LIBRARYQUALITY=1
121.02853	2
153.0183	3
165.01828	2
287.05527	100
288.05811	3
END IONS

BEGIN IONS
PEPMASS=435.09219
CHARGE=1
MSLEVEL=2
FILENAME=PhenolicsDB_Positive.mgf
SCANS=30
SEQ=*..*
IONMODE=Positive
ORGANISM=N/A
NAME=Avicularin 20eV
PI=Jessica Cooperstone
DATACOLECTOR=DOI:10.5281/zenodo.8475
SMILES=C1=CC(=C(C=C1C2=C(C(=O)C3=C(C=C(C=C3O2)O)O)OC4C(C(C(O4)CO)O)O)O)O
INCHI=BDCDNTVZSILEOY-UXYNSRGZSA-N
INCHIAUX=N/A
PUBMED=N/A
LIBRARYQUALITY=1
57.03321	3
85.02814	2
115.03908	2
133.0496	2
303.05147	100
303.09057	4
304.05357	2
END IONS

BEGIN IONS
PEPMASS=435.09219
CHARGE=1
MSLEVEL=2
FILENAME=PhenolicsDB_Positive.mgf
SCANS=31
SEQ=*..*
IONMODE=Positive
ORGANISM=N/A
NAME=Avicularin 40eV
PI=Jessica Cooperstone
DATACOLECTOR=DOI:10.5281/zenodo.8475
SMILES=C1=CC(=C(C=C1C2=C(C(=O)C3=C(C=C(C=C3O2)O)O)OC4C(C(C(O4)CO)O)O)O)O
INCHI=BDCDNTVZSILEOY-UXYNSRGZSA-N
INCHIAUX=N/A
PUBMED=N/A
LIBRARYQUALITY=1
55.01786	6
57.0335	11
61.02846	3
69.03376	3
71.01279	2
73.02856	3
85.0288	4
111.00799	2
121.02888	2
137.02383	6
153.01874	7
165.01872	7
201.05524	3
229.05031	9
247.06073	3
257.04527	8
274.04705	2
285.03951	4
303.05106	100
303.06177	4
303.09113	4
304.05393	3
END IONS

BEGIN IONS
PEPMASS=435.09219
CHARGE=1
MSLEVEL=2
FILENAME=PhenolicsDB_Positive.mgf
SCANS=32
SEQ=*..*
IONMODE=Positive
ORGANISM=N/A
NAME=Avicularin 60eV
PI=Jessica Cooperstone
DATACOLECTOR=DOI:10.5281/zenodo.8475
SMILES=C1=CC(=C(C=C1C2=C(C(=O)C3=C(C=C(C=C3O2)O)O)OC4C(C(C(O4)CO)O)O)O)O
INCHI=BDCDNTVZSILEOY-UXYNSRGZSA-N
INCHIAUX=N/A
PUBMED=N/A
LIBRARYQUALITY=1
53.03825	5
55.01757	38
55.0227	2
57.03322	47
57.03845	3
59.04901	4
61.02816	12
65.03842	6
67.01763	7
67.05403	5
68.99699	32
69.00283	2
69.03341	25
69.03966	2
71.01279	18
73.02847	7
77.03832	7
81.0334	14
85.02846	12
91.0544	4
93.03361	7
95.04945	10
97.02838	6
105.0334	3
107.04914	4
109.02855	19
111.00782	14
115.05441	4
117.07012	6
121.02861	18
123.04448	8
127.03883	2
127.05437	11
128.06227	2
131.04945	5
133.02908	2
135.04424	7
136.01559	2
137.02362	60
137.03188	4
143.04893	2
145.02879	2
145.06506	9
147.04443	2
149.02329	5
153.01864	100
153.02703	7
155.04944	19
157.06485	2
159.04401	4
161.06006	8
163.03942	10
165.01861	31
165.02768	2
166.02631	4
173.02318	2
173.06011	17
177.01866	2
177.05573	3
179.03457	6
183.04438	16
184.05152	2
187.03921	10
191.03429	2
195.02928	2
200.0477	2
201.05513	41
201.06482	3
203.03367	3
205.05014	3
211.0393	4
213.05512	2
215.03426	2
217.05023	2
219.02946	2
219.06558	3
228.04236	8
229.05009	66
229.06084	6
232.0371	2
239.03427	7
245.04549	3
246.05454	2
247.06029	5
257.04479	23
257.05624	2
274.04725	8
285.03956	11
303.05067	34
303.06353	3
END IONS

BEGIN IONS
PEPMASS=435.09219
CHARGE=1
MSLEVEL=2
FILENAME=PhenolicsDB_Positive.mgf
SCANS=33
SEQ=*..*
IONMODE=Positive
ORGANISM=N/A
NAME=Avicularin 80eV
PI=Jessica Cooperstone
DATACOLECTOR=DOI:10.5281/zenodo.8475
SMILES=C1=CC(=C(C=C1C2=C(C(=O)C3=C(C=C(C=C3O2)O)O)OC4C(C(C(O4)CO)O)O)O)O
INCHI=BDCDNTVZSILEOY-UXYNSRGZSA-N
INCHIAUX=N/A
PUBMED=N/A
LIBRARYQUALITY=1
51.02252	12
53.00191	2
53.03827	19
55.01754	64
55.02244	4
57.0332	51
57.03882	3
59.04899	3
61.02833	8
63.02279	4
65.03824	19
67.0177	23
67.02356	2
67.05389	10
68.99695	100
69.00305	7
69.03335	38
69.0395	3
71.01258	26
71.01893	2
73.02793	4
75.0226	2
77.03856	32
77.04489	2
79.01866	2
79.05452	6
81.03342	39
81.04018	3
83.0128	5
85.02826	9
89.03846	5
91.01794	4
91.05423	9
92.0251	2
93.03333	12
94.04114	2
95.0489	9
97.02816	11
101.03838	3
103.05429	10
105.03338	11
105.07033	4
107.01284	3
107.04922	4
108.02108	5
109.0286	36
109.03622	2
110.03686	3
111.00758	8
115.05435	25
115.06203	2
116.06255	2
117.03355	2
117.07001	16
117.07802	2
119.01279	2
119.04917	2
121.02846	18
121.0356	2
122.03615	2
123.04425	10
125.02291	2
126.04622	2
127.05447	52
127.06243	4
128.06194	7
131.0495	15
133.02918	3
135.04438	4
136.01472	2
137.02354	35
137.03151	2
139.05437	3
141.03375	2
143.04911	2
144.05664	3
145.02804	2
145.06507	8
147.04434	3
153.01859	77
153.02753	6
155.04936	51
155.0584	4
157.06534	2
159.04419	5
160.05199	2
161.02296	2
161.06004	4
163.03919	4
165.01924	5
171.04513	2
173.05975	16
173.06952	2
177.01874	2
179.03458	6
183.04454	13
184.05138	5
187.03919	11
200.04746	9
201.05528	9
203.03459	6
211.03936	5
219.02988	2
228.04229	5
229.04992	22
229.06044	3
239.03336	2
245.04592	3
257.04454	3
273.03838	2
285.04087	2
END IONS

BEGIN IONS
PEPMASS=181.04945
CHARGE=1
MSLEVEL=2
FILENAME=PhenolicsDB_Positive.mgf
SCANS=34
SEQ=*..*
IONMODE=Positive
ORGANISM=N/A
NAME=Caffeic acid 20eV
PI=Jessica Cooperstone
DATACOLECTOR=DOI:10.5281/zenodo.8475
SMILES=C1=CC(=C(C=C1C=CC(=O)O)O)O
INCHI=QAIPRVGONGVQAS-DUXPYHPUSA-N
INCHIAUX=N/A
PUBMED=N/A
LIBRARYQUALITY=1
107.04896	16
117.03327	78
135.04372	100
145.02813	64
163.03875	69
END IONS

BEGIN IONS
PEPMASS=181.04945
CHARGE=1
MSLEVEL=2
FILENAME=PhenolicsDB_Positive.mgf
SCANS=35
SEQ=*..*
IONMODE=Positive
ORGANISM=N/A
NAME=Caffeic acid 40eV
PI=Jessica Cooperstone
DATACOLECTOR=DOI:10.5281/zenodo.8475
SMILES=C1=CC(=C(C=C1C=CC(=O)O)O)O
INCHI=QAIPRVGONGVQAS-DUXPYHPUSA-N
INCHIAUX=N/A
PUBMED=N/A
LIBRARYQUALITY=1
107.04882	25
110.0353	3
117.03317	100
118.04132	2
134.03565	2
135.04361	28
136.05102	4
145.02751	2
END IONS

BEGIN IONS
PEPMASS=291.08624
CHARGE=1
MSLEVEL=2
FILENAME=PhenolicsDB_Positive.mgf
SCANS=36
SEQ=*..*
IONMODE=Positive
ORGANISM=N/A
NAME=Catechin 20eV
PI=Jessica Cooperstone
DATACOLECTOR=DOI:10.5281/zenodo.8475
SMILES=C1C(C(OC2=CC(=CC(=C21)O)O)C3=CC(=C(C=C3)O)O)O
INCHI=PFTAWBLQPZVEMU-DZGCQCFKSA-N
INCHIAUX=N/A
PUBMED=N/A
LIBRARYQUALITY=1
119.04893	3
123.04394	48
139.03893	100
147.04397	20
151.03876	2
161.05955	7
163.03856	2
165.05446	8
179.06985	5
189.0543	2
207.06512	12
END IONS

BEGIN IONS
PEPMASS=291.08624
CHARGE=1
MSLEVEL=2
FILENAME=PhenolicsDB_Positive.mgf
SCANS=37
SEQ=*..*
IONMODE=Positive
ORGANISM=N/A
NAME=Catechin 40eV
PI=Jessica Cooperstone
DATACOLECTOR=DOI:10.5281/zenodo.8475
SMILES=C1C(C(OC2=CC(=CC(=C21)O)O)C3=CC(=C(C=C3)O)O)O
INCHI=PFTAWBLQPZVEMU-DZGCQCFKSA-N
INCHIAUX=N/A
PUBMED=N/A
LIBRARYQUALITY=1
105.03334	3
105.06965	3
107.04905	2
111.04396	11
115.05414	8
119.04918	16
123.0439	100
131.04886	2
133.06454	3
137.02296	3
139.03871	63
143.04892	7
147.04411	20
161.05936	8
163.03877	2
END IONS

BEGIN IONS
PEPMASS=355.10229
CHARGE=1
MSLEVEL=2
FILENAME=PhenolicsDB_Positive.mgf
SCANS=38
SEQ=*..*
IONMODE=Positive
ORGANISM=N/A
NAME=Chlorogenic acid 20eV
PI=Jessica Cooperstone
DATACOLECTOR=DOI:10.5281/zenodo.8475
SMILES=C1C(C(C(CC1(C(=O)O)O)OC(=O)C=CC2=CC(=C(C=C2)O)O)O)O
INCHI=CWVRJTMFETXNAD-JUHZACGLSA-N
INCHIAUX=N/A
PUBMED=N/A
LIBRARYQUALITY=1
145.02863	3
163.03998	100
END IONS

BEGIN IONS
PEPMASS=355.10229
CHARGE=1
MSLEVEL=2
FILENAME=PhenolicsDB_Positive.mgf
SCANS=39
SEQ=*..*
IONMODE=Positive
ORGANISM=N/A
NAME=Chlorogenic acid 40eV
PI=Jessica Cooperstone
DATACOLECTOR=DOI:10.5281/zenodo.8475
SMILES=C1C(C(C(CC1(C(=O)O)O)OC(=O)C=CC2=CC(=C(C=C2)O)O)O)O
INCHI=CWVRJTMFETXNAD-JUHZACGLSA-N
INCHIAUX=N/A
PUBMED=N/A
LIBRARYQUALITY=1
107.04933	9
117.03347	55
135.04405	74
145.02835	65
163.03897	100
END IONS

BEGIN IONS
PEPMASS=473.3624
CHARGE=1
MSLEVEL=2
FILENAME=PhenolicsDB_Positive.mgf
SCANS=40
SEQ=*..*
IONMODE=Positive
ORGANISM=N/A
NAME=Corosolic acid 20eV
PI=Jessica Cooperstone
DATACOLECTOR=DOI:10.5281/zenodo.8475
SMILES=CC1CCC2(CCC3(C(=CCC4C3(CCC5C4(CC(C(C5(C)C)O)O)C)C)C2C1C)C)C(=O)O
INCHI=HFGSQOYIOKBQOW-ZSDYHTTISA-N
INCHIAUX=N/A
PUBMED=N/A
LIBRARYQUALITY=1
106.15514	4
109.09868	30
109.32629	2
119.08698	31
120.33327	2
123.07858	11
124.08231	9
133.09882	11
135.0782	4
137.0972	13
139.06203	10
147.115	13
149.12867	5
161.1328	29
163.06928	22
165.13013	3
177.71725	3
178.15981	9
178.18579	2
179.10108	6
179.11666	2
185.13157	7
187.1463	29
189.16295	51
190.10919	2
191.17702	12
194.1202	4
195.05759	11
201.16498	8
203.17902	71
203.56862	2
205.15872	58
205.19165	43
207.17453	42
210.11008	16
213.16409	22
221.1439	2
221.19562	4
231.12426	27
231.17091	11
232.10239	5
233.19111	8
245.19634	6
249.14367	4
249.18733	22
249.31364	3
249.34109	2
250.18437	17
255.23556	12
267.68902	4
267.91078	3
271.24054	11
285.21426	10
290.45761	2
298.95216	9
300.19812	13
313.2433	17
318.12523	20
321.25334	10
325.21856	3
326.68393	5
327.43328	3
340.93456	14
350.70676	19
350.74451	3
365.18708	12
381.28184	6
381.34192	20
385.17926	6
385.97225	13
386.00949	2
396.36919	8
396.40792	2
397.20987	9
409.34471	100
409.73834	6
411.27911	2
417.2186	4
423.27625	5
427.34773	12
428.2052	13
428.35674	6
437.33655	62
437.4174	2
437.5543	4
439.29465	6
446.28614	18
455.19046	10
455.30583	12
455.35837	8
473.12222	4
473.20772	24
473.35329	76
473.43661	5
473.67781	3
474.01322	4
474.28722	12
474.36285	5
495.59815	3
539.96643	4
756.35295	7
806.43485	2
1188.11702	6
1494.07171	5
END IONS

BEGIN IONS
PEPMASS=355.10233
CHARGE=1
MSLEVEL=2
FILENAME=PhenolicsDB_Positive.mgf
SCANS=41
SEQ=*..*
IONMODE=Positive
ORGANISM=N/A
NAME=Cryptochlorogenic acid 20eV
PI=Jessica Cooperstone
DATACOLECTOR=DOI:10.5281/zenodo.8475
SMILES=O=C(O)[C@@]1(O)C[C@@H](O)[C@H](OC(/C=C/C2=CC(O)=C(O)C=C2)=O)[C@H](O)C1
INCHI=GYFFKZTYYAFCTR-JUHZACGLSA-N
INCHIAUX=N/A
PUBMED=N/A
LIBRARYQUALITY=1
135.04415	2
145.02855	6
163.03955	100
163.0691	4
END IONS

BEGIN IONS
PEPMASS=355.10233
CHARGE=1
MSLEVEL=2
FILENAME=PhenolicsDB_Positive.mgf
SCANS=42
SEQ=*..*
IONMODE=Positive
ORGANISM=N/A
NAME=Cryptochlorogenic acid 40eV
PI=Jessica Cooperstone
DATACOLECTOR=DOI:10.5281/zenodo.8475
SMILES=O=C(O)[C@@]1(O)C[C@@H](O)[C@H](OC(/C=C/C2=CC(O)=C(O)C=C2)=O)[C@H](O)C1
INCHI=GYFFKZTYYAFCTR-JUHZACGLSA-N
INCHIAUX=N/A
PUBMED=N/A
LIBRARYQUALITY=1
55.05386	2
77.03844	5
79.05413	10
83.04924	4
89.03864	56
89.04538	5
107.04925	14
111.04412	2
117.03365	80
117.04126	5
135.04433	100
135.05194	7
145.02875	79
145.03717	5
163.03926	94
163.04817	7
END IONS

BEGIN IONS
PEPMASS=183.08681
CHARGE=1
MSLEVEL=2
FILENAME=PhenolicsDB_Positive.mgf
SCANS=43
SEQ=*..*
IONMODE=Positive
ORGANISM=N/A
NAME=D-Sorbitol 20eV
PI=Jessica Cooperstone
DATACOLECTOR=DOI:10.5281/zenodo.8475
SMILES=C(C(C(C(C(CO)O)O)O)O)O
INCHI=FBPFZTCFMRRESA-JGWLITMVSA-N
INCHIAUX=N/A
PUBMED=N/A
LIBRARYQUALITY=1
101.05994	3
103.03917	26
111.04417	100
117.0545	10
129.05463	26
147.06543	2
END IONS

BEGIN IONS
PEPMASS=183.08681
CHARGE=1
MSLEVEL=2
FILENAME=PhenolicsDB_Positive.mgf
SCANS=44
SEQ=*..*
IONMODE=Positive
ORGANISM=N/A
NAME=D-Sorbitol 40eV
PI=Jessica Cooperstone
DATACOLECTOR=DOI:10.5281/zenodo.8475
SMILES=C(C(C(C(C(CO)O)O)O)O)O
INCHI=FBPFZTCFMRRESA-JGWLITMVSA-N
INCHIAUX=N/A
PUBMED=N/A
LIBRARYQUALITY=1
101.70375	3
102.75761	2
103.12551	2
103.23165	8
105.11617	2
105.87702	4
106.94996	4
107.05825	9
107.652	5
107.68807	2
109.14645	3
109.61648	2
110.03697	13
110.59087	8
111.04392	100
111.08227	3
111.43013	6
111.64008	2
112.39432	3
112.46737	4
113.06931	2
113.1289	7
113.68768	3
114.95013	18
115.48564	4
118.41113	2
119.08821	19
120.25824	4
121.46953	2
122.44367	2
122.86952	10
123.61101	2
123.77236	8
124.55695	2
124.84238	3
124.9907	6
125.6012	5
125.87863	6
126.23262	2
128.07586	4
129.5802	2
130.02409	2
130.39544	5
132.03819	2
132.09004	2
132.15404	2
132.3482	4
132.6276	10
132.78243	3
132.91046	4
133.54763	2
133.93095	5
134.2249	2
134.64019	2
135.22595	5
135.33575	10
135.72369	3
135.89397	2
136.74612	3
137.1924	4
137.56114	2
137.7322	2
138.46647	2
139.44372	3
139.51216	3
139.67841	16
140.31486	2
144.92572	4
145.35255	3
145.89395	2
146.63417	3
148.01423	2
148.25526	2
148.61696	3
149.64471	2
150.58052	8
150.69613	4
151.25581	3
151.84698	5
152.11239	2
153.19449	5
153.48364	2
157.40335	3
158.9756	3
159.10985	3
159.19966	3
159.737	4
160.15455	4
160.71421	3
163.13994	3
164.7832	3
166.22281	4
166.51777	2
166.99494	2
167.08511	2
167.71772	5
169.69753	4
169.78412	4
170.37848	4
173.10068	3
174.37238	2
178.03724	7
180.5943	2
180.97419	3
181.06546	2
181.45992	4
182.1163	4
185.21266	3
186.0702	3
187.87571	3
188.91768	3
190.86804	3
191.35362	3
191.61345	3
192.88718	11
193.02361	4
195.77112	2
195.82324	6
197.19898	4
197.52178	5
197.98368	8
198.04912	2
198.25524	2
200.98622	16
204.14667	6
206.17158	2
206.85655	2
207.04759	4
207.46723	4
207.62756	2
209.22401	4
209.84858	7
212.30396	4
212.93186	3
214.51825	3
215.02903	11
216.4184	9
217.30347	4
219.17851	2
219.20939	7
220.60176	4
221.18443	5
222.20065	5
222.74323	3
225.30135	4
225.6703	2
225.96972	6
226.02701	4
226.60305	4
227.72935	4
228.42787	2
229.13004	4
229.93877	4
230.63166	2
230.82046	6
232.33374	5
232.5383	2
232.55677	4
232.90158	4
234.0543	2
235.4396	4
235.56293	5
235.77927	4
236.13378	2
236.94137	3
236.95756	5
238.11081	3
239.56114	8
240.01375	3
240.3904	2
240.51091	8
242.99062	3
243.24051	3
246.2761	5
249.33128	5
250.45102	2
252.97353	4
253.10639	3
253.95194	4
254.67222	3
254.88469	2
255.02959	5
255.36291	3
255.39771	5
258.30386	8
263.31733	3
264.46733	5
268.74892	4
268.95123	5
269.42153	5
270.05002	3
270.46165	4
273.07115	7
273.20819	3
274.75171	2
277.40769	3
278.91309	5
279.53218	3
280.59759	5
282.07317	3
283.35369	3
284.33217	3
285.63128	7
286.2998	2
286.67927	4
287.48364	8
288.20951	2
288.43358	3
291.42412	4
295.00289	4
295.34368	6
296.80945	5
296.97941	2
297.90097	6
298.59449	2
299.06041	4
299.59138	2
300.59586	2
300.75944	4
301.86333	5
302.28815	2
303.58048	5
304.24852	3
305.71289	7
307.31944	2
307.42387	2
307.54003	2
314.12966	3
319.63913	3
320.06008	5
323.30538	9
323.88728	3
324.78954	2
325.45362	5
326.4016	2
328.78152	3
330.14418	2
330.51076	3
331.06752	2
333.97165	3
334.76246	2
335.53684	3
335.88185	3
336.42935	2
337.17131	2
338.57581	3
339.42651	3
342.11718	3
342.35551	4
346.15996	2
346.74294	3
347.88805	3
349.67756	5
349.82731	3
350.87896	3
352.36355	7
353.77451	2
355.70149	2
356.60672	7
356.86079	4
357.49816	8
357.64296	2
360.16015	2
362.65137	2
363.48073	4
364.90722	2
365.452	5
366.88935	4
369.99324	6
371.13122	4
372.8751	5
372.94135	6
373.63081	2
375.62656	3
376.57122	3
377.62276	3
378.5168	3
379.39695	4
379.78287	2
380.61834	6
382.9566	8
383.5077	2
384.8555	4
385.77019	2
387.75127	4
388.34264	2
390.35086	2
391.79787	2
391.9546	3
395.32952	5
395.76158	4
396.63448	6
397.63187	2
398.44708	2
398.92261	3
399.08596	2
399.95762	2
400.54649	6
400.98477	3
401.52114	3
401.99999	2
402.42752	2
403.23061	2
406.72258	3
407.38454	2
409.80447	4
413.44549	2
415.02763	5
417.91408	2
418.97738	7
419.86649	5
423.89288	3
425.11096	2
426.20874	11
428.39386	2
430.2628	3
430.86621	2
433.07326	6
434.01918	4
434.57411	3
435.20079	5
436.94426	7
438.42101	7
439.98752	3
440.24169	6
441.16985	4
441.5645	2
443.05648	3
443.29155	27
443.33503	5
443.45937	2
444.79297	2
444.88868	6
447.13146	3
450.65747	2
451.21171	8
451.63079	2
451.76021	2
455.29833	5
456.92455	5
457.14015	2
459.45915	2
460.01465	3
461.00789	2
461.64589	5
467.19999	6
468.77056	2
469.33236	5
469.9077	3
472.23736	5
473.30549	6
476.23585	2
480.25123	6
480.37339	4
482.26974	4
482.38744	2
483.40534	4
483.48795	5
483.90093	2
484.05537	4
484.875	5
485.35777	4
486.13755	2
486.94263	4
488.21347	2
490.28644	6
490.78707	2
491.06465	4
495.45946	2
497.79954	3
498.85706	2
504.65836	5
505.90918	3
509.57667	6
511.28128	4
515.01524	2
515.29938	3
517.62326	4
522.88172	7
524.68034	4
526.46615	3
528.32692	3
531.50635	2
531.82812	10
532.60401	4
532.93171	4
537.09155	2
538.0244	2
539.05028	2
542.1237	4
543.08005	2
543.21089	3
545.15654	3
546.84684	4
547.05151	5
549.83529	3
550.82007	6
551.64813	4
552.47237	5
553.59281	4
555.45984	2
555.5336	2
556.78789	3
558.43912	4
560.6192	6
564.0716	4
565.35497	2
565.95512	2
572.35332	3
574.06571	3
574.4525	3
574.95727	2
576.9143	3
577.17403	3
581.32037	2
581.42592	2
583.23855	2
586.62799	2
586.77263	5
587.2105	2
587.92575	6
589.7582	3
591.82828	4
592.46249	3
592.50511	2
594.64002	7
595.90606	2
597.30373	4
598.51304	2
599.02902	3
600.4373	2
601.55419	2
603.62113	2
605.10772	7
607.41935	3
607.56565	3
608.72279	4
612.41076	2
615.72654	2
618.91742	3
622.19827	2
623.22878	6
624.2743	2
626.30362	3
627.04812	3
628.27637	3
630.4574	3
630.96394	2
633.06187	2
635.85635	4
636.18962	2
637.41191	4
637.94463	5
638.29518	5
639.45669	3
642.40641	2
643.39962	4
644.00236	2
644.1066	2
644.70901	3
646.58265	7
647.15274	9
649.11329	3
649.47542	2
656.04229	5
656.66691	3
661.08751	7
662.21446	3
663.24165	2
663.73429	3
667.63679	3
670.35333	2
670.98356	3
671.68138	4
672.25458	4
672.34445	3
674.19995	5
674.69093	5
675.99249	2
687.24115	3
687.61692	4
688.50712	4
689.42355	5
689.99886	5
690.69143	4
692.98172	2
697.35151	2
698.66538	12
700.02814	3
700.14909	2
701.5546	6
705.65956	2
706.25092	3
707.55855	3
708.75845	3
709.73856	3
711.87101	2
713.98244	2
714.57555	5
715.44005	3
716.43467	5
716.51869	4
717.40572	10
718.25954	6
719.04349	4
719.14959	2
722.60985	3
725.52947	2
725.92239	8
731.5366	2
731.61349	6
735.46565	7
737.43731	11
739.38095	5
740.82145	6
742.84774	2
743.63724	5
744.41265	2
753.08694	2
753.67315	3
754.47386	2
755.90853	2
758.35795	2
759.74754	2
761.31446	2
761.99226	2
763.83161	3
765.29624	4
766.55894	2
769.16068	3
773.52022	4
776.45937	2
777.97176	3
778.3792	3
779.86433	2
783.16968	2
783.4045	2
784.06412	2
785.12706	5
785.91661	6
786.21873	3
787.05804	4
789.74666	2
793.14727	2
793.53938	3
797.17607	4
800.95197	3
801.29297	2
806.7896	4
807.23604	6
807.39313	2
807.58012	2
807.85612	2
810.49752	4
815.29649	3
815.70097	2
816.14066	3
818.9745	3
821.47027	2
823.48604	2
824.32738	2
825.107	6
826.35544	3
827.91973	6
828.94818	10
830.93609	2
832.41383	5
833.14743	2
838.91872	3
842.03172	5
842.86152	3
843.28646	5
843.35135	4
843.95282	4
844.57871	2
846.05486	3
848.03477	7
856.59707	3
860.46696	3
864.38887	3
867.24531	2
868.3519	2
868.75321	2
869.85926	5
872.76391	2
875.30331	2
876.82666	4
877.30185	3
879.58854	2
880.88091	4
889.72489	2
892.07074	4
895.54332	2
896.3589	5
896.96932	10
897.42778	2
898.55325	3
902.122	3
902.3212	3
902.98062	4
903.02099	2
904.32771	6
905.49704	2
913.44825	2
916.21081	3
917.97306	3
920.71842	7
922.12181	2
924.12605	3
924.71387	2
925.49251	5
926.04039	3
928.26404	3
934.97223	2
936.0352	3
940.93638	2
943.55636	7
944.20338	2
946.84459	4
947.04791	3
948.52534	2
950.32549	2
950.5828	6
950.62681	3
951.64456	3
956.98195	2
960.1922	2
965.40427	4
967.28529	4
968.44991	3
968.69014	2
969.59013	4
970.09903	2
975.34844	5
979.38547	4
979.84443	2
980.72129	2
982.64022	9
983.51053	3
983.69305	2
985.45303	5
993.78915	2
993.89866	5
994.00832	2
995.46716	2
996.18012	5
997.5748	5
999.46486	2
999.89438	2
1002.40469	2
1005.97463	2
1007.81977	2
1008.37876	3
1012.45367	2
1013.61991	2
1014.71626	3
1015.41426	2
1020.32923	2
1023.83128	2
1027.95248	2
1028.67733	2
1031.40056	4
1031.78048	5
1036.08128	3
1036.53318	4
1039.69289	5
1040.47496	3
1042.52154	5
1044.01266	2
1045.02795	3
1053.65405	2
1057.31564	3
1061.40126	2
1063.10129	5
1063.82641	2
1075.43934	3
1077.72867	5
1077.88229	3
1079.35453	2
1080.76025	3
1081.57302	2
1081.81018	3
1082.22236	2
1082.77328	2
1082.8305	4
1082.90262	6
1085.68175	4
1087.04572	3
1089.93803	2
1090.83355	5
1091.5448	2
1091.82066	5
1092.89442	19
1095.34055	6
1098.92191	3
1100.03115	8
1101.37873	2
1101.54733	3
1103.38486	2
1103.91222	2
1106.58968	6
1110.70033	2
1110.86259	2
1111.30307	3
1111.86384	4
1112.79904	2
1115.06736	3
1118.19985	4
1118.44406	4
1119.95748	5
1120.63163	5
1122.02238	3
1122.07632	3
1124.14068	6
1126.6748	2
1127.75128	2
1132.32653	2
1132.79564	3
1135.66403	3
1143.08303	2
1143.2237	3
1149.14568	4
1151.385	2
1151.74209	2
1153.53521	2
1156.26297	6
1157.15047	4
1157.19393	5
1158.46561	4
1162.24444	2
1163.43114	7
1169.78592	8
1170.49875	2
1170.60587	4
1176.56229	2
1177.05248	3
1178.31641	3
1185.75358	6
1188.73064	3
1190.86869	6
1194.45176	5
1195.86205	4
1199.95983	4
1201.25227	7
1207.30897	2
1208.78357	2
1211.5783	5
1212.94535	5
1214.37543	3
1215.07884	4
1221.13185	2
1221.23244	2
1223.40873	3
1226.3906	2
1226.87835	4
1228.91053	13
1229.46183	5
1231.95018	3
1233.42753	3
1240.88879	2
1242.50669	7
1244.89205	10
1245.67093	3
1247.71135	4
1248.19242	6
1257.45356	2
1263.09866	4
1264.21123	2
1266.73499	5
1267.09383	3
1270.50025	4
1272.02048	3
1272.37735	6
1274.94142	2
1278.73149	2
1279.49475	3
1282.11666	6
1285.35664	3
1286.42508	2
1290.09795	3
1290.60387	4
1296.26492	5
1296.89064	4
1300.81359	5
1300.93895	3
1302.02895	5
1304.99201	2
1315.18687	2
1316.54986	2
1322.14573	4
1325.0873	2
1325.41607	3
1326.75196	8
1329.75257	3
1330.69459	3
1333.95688	3
1334.88411	3
1335.78636	2
1340.8375	5
1343.51613	3
1344.98613	2
1345.46331	5
1350.91562	3
1352.59166	5
1353.56456	5
1357.12176	2
1357.40929	3
1360.44331	3
1363.49822	6
1364.8137	3
1365.81404	2
1368.97203	3
1375.09056	4
1380.04186	8
1387.12249	3
1399.11915	2
1400.3257	2
1401.44697	4
1402.00492	6
1404.41441	2
1406.42387	2
1407.67481	5
1410.36663	3
1410.5238	2
1410.88496	2
1411.22594	2
1414.60431	4
1415.01554	5
1419.31093	2
1421.67047	5
1422.65371	2
1424.03069	2
1425.90901	3
1426.62723	2
1428.06267	3
1431.45832	3
1431.83073	2
1434.40349	2
1435.99859	2
1444.76187	2
1446.90395	2
1451.2443	4
1452.17295	4
1455.84745	3
1465.01636	3
1472.91944	2
1477.4931	2
1479.10554	2
1482.85582	7
1489.84971	2
1490.95253	2
1493.08636	3
1496.29047	11
1501.13496	11
1501.76799	4
1504.5989	2
1505.50327	4
1506.21849	2
1508.49349	3
1509.56677	4
1514.32801	3
1514.86858	2
1516.30364	4
1517.42386	8
1517.71762	2
1519.27271	7
1519.35197	2
1519.50108	2
1520.68217	5
1521.84713	3
1521.98272	4
1527.23696	8
1535.09488	7
1536.71784	2
1539.6153	5
1539.65871	2
1541.21295	2
1541.69081	3
1544.15944	3
1545.11997	6
1547.57276	4
1549.3611	2
1551.84034	4
1551.92113	4
1553.12813	6
1569.12136	2
1569.81406	3
1573.86257	3
1575.04964	4
1575.11825	5
1576.30623	4
1578.19749	4
1581.43769	7
1582.34439	2
1586.66554	4
1590.55871	7
1592.25207	4
1593.55551	3
1594.55822	2
1609.74249	2
1611.26638	6
1615.01926	2
1617.74881	2
1622.08498	3
1623.93407	2
1626.8923	3
1627.69176	2
1628.47954	4
1634.01162	2
1639.09412	3
1640.71806	2
1640.91175	2
1644.67011	2
1648.72016	2
1651.52999	2
1654.5715	5
1659.05827	2
1660.75796	5
1672.65582	2
1675.50126	4
1677.16698	2
1682.44191	12
1682.52978	2
1682.64238	2
1684.50964	3
1689.16567	4
1689.73742	2
1690.86825	3
1692.26748	2
END IONS

BEGIN IONS
PEPMASS=303.01346
CHARGE=1
MSLEVEL=2
FILENAME=PhenolicsDB_Positive.mgf
SCANS=45
SEQ=*..*
IONMODE=Positive
ORGANISM=N/A
NAME=Ellagic acid 20eV
PI=Jessica Cooperstone
DATACOLECTOR=DOI:10.5281/zenodo.8475
SMILES=C1=C2C3=C(C(=C1O)O)OC(=O)C4=CC(=C(C(=C43)OC2=O)O)O
INCHI=AFSDNFLWKVMVRB-UHFFFAOYSA-N
INCHIAUX=N/A
PUBMED=N/A
LIBRARYQUALITY=1
231.02572	2
257.00623	6
259.02216	2
275.0178	8
285.00151	11
303.01273	100
303.17636	4
END IONS

BEGIN IONS
PEPMASS=303.01346
CHARGE=1
MSLEVEL=2
FILENAME=PhenolicsDB_Positive.mgf
SCANS=46
SEQ=*..*
IONMODE=Positive
ORGANISM=N/A
NAME=Ellagic acid 40eV
PI=Jessica Cooperstone
DATACOLECTOR=DOI:10.5281/zenodo.8475
SMILES=C1=C2C3=C(C(=C1O)O)OC(=O)C4=CC(=C(C(=C43)OC2=O)O)O
INCHI=AFSDNFLWKVMVRB-UHFFFAOYSA-N
INCHIAUX=N/A
PUBMED=N/A
LIBRARYQUALITY=1
101.03924	4
103.05313	3
117.03285	23
119.04775	2
127.01868	4
129.032	8
135.04362	2
145.02834	29
147.04283	12
157.02832	9
161.02101	2
163.03905	13
173.0223	59
175.03839	5
177.01499	3
183.00764	19
185.0207	10
191.03309	15
201.01751	100
203.03126	12
205.01001	2
210.99949	2
213.0175	8
219.02865	7
229.01254	64
231.02934	12
241.01358	2
247.0224	33
257.00741	80
275.01587	20
285.00201	8
303.01584	2
END IONS

BEGIN IONS
PEPMASS=597.18134
CHARGE=1
MSLEVEL=2
FILENAME=PhenolicsDB_Positive.mgf
SCANS=47
SEQ=*..*
IONMODE=Positive
ORGANISM=N/A
NAME=Eriocitrin 20eV
PI=Jessica Cooperstone
DATACOLECTOR=DOI:10.5281/zenodo.8475
SMILES=CC1C(C(C(C(O1)OCC2C(C(C(C(O2)OC3=CC(=C4C(=O)CC(OC4=C3)C5=CC(=C(C=C5)O)O)O)O)O)O)O)O)O
INCHI=OMQADRGFMLGFJF-MNPJBKLOSA-N
INCHIAUX=N/A
PUBMED=N/A
LIBRARYQUALITY=1
127.03808	2
129.05432	22
147.06517	5
153.01783	2
163.03854	3
195.02826	22
219.02833	5
245.04417	4
261.03877	4
263.05416	12
281.06526	8
289.07027	100
290.07326	5
301.06979	12
313.06972	10
331.08054	46
332.08323	3
339.07384	2
355.08047	34
356.08326	2
367.08046	5
379.0798	2
381.09603	8
385.09186	4
389.08563	2
397.09099	11
399.10657	37
400.10879	4
407.09613	3
415.10124	12
417.11733	18
423.10619	2
425.1064	2
429.11616	2
433.112	22
434.11481	2
435.12767	17
441.11614	2
445.11204	3
451.12257	9
459.12828	2
475.1228	2
543.14821	3
END IONS

BEGIN IONS
PEPMASS=597.18134
CHARGE=1
MSLEVEL=2
FILENAME=PhenolicsDB_Positive.mgf
SCANS=48
SEQ=*..*
IONMODE=Positive
ORGANISM=N/A
NAME=Eriocitrin 40eV
PI=Jessica Cooperstone
DATACOLECTOR=DOI:10.5281/zenodo.8475
SMILES=CC1C(C(C(C(O1)OCC2C(C(C(C(O2)OC3=CC(=C4C(=O)CC(OC4=C3)C5=CC(=C(C=C5)O)O)O)O)O)O)O)O)O
INCHI=OMQADRGFMLGFJF-MNPJBKLOSA-N
INCHIAUX=N/A
PUBMED=N/A
LIBRARYQUALITY=1
109.02854	2
111.04371	4
123.04366	2
127.03847	2
129.05445	9
135.04359	5
137.05893	2
153.01792	34
163.03852	32
165.0177	17
177.01762	6
177.05239	2
179.03359	5
189.01783	3
191.0332	8
195.0284	100
196.03185	3
203.03333	7
205.01211	2
205.04894	2
207.02793	4
217.04866	3
219.02823	49
231.02811	14
233.04323	2
237.0387	2
243.02762	5
245.0439	30
246.04762	2
257.04417	3
261.03917	16
263.05482	28
264.05799	2
269.04444	2
271.0594	3
273.03903	2
275.05509	2
279.04989	2
281.0645	2
285.03762	2
287.05404	3
289.07014	82
290.07382	4
301.06987	19
303.05083	2
305.06373	3
311.05349	2
313.06973	10
325.07062	2
329.06468	3
331.08005	4
339.08326	2
355.08019	12
367.0809	7
379.08014	3
381.09603	7
397.09054	2
399.10571	2
END IONS

BEGIN IONS
PEPMASS=451.1235
CHARGE=1
MSLEVEL=2
FILENAME=PhenolicsDB_Positive.mgf
SCANS=49
SEQ=*..*
IONMODE=Positive
ORGANISM=N/A
NAME=Eriodictyol 7-O-glucoside 20eV
PI=Jessica Cooperstone
DATACOLECTOR=DOI:10.5281/zenodo.8475
SMILES=OC1=C2C(O[C@@H](CC2=O)C3=CC(O)=C(O)C=C3)=CC(O[C@@H]4O[C@@H]([C@H]([C@@H]([C@H]4O)O)O)CO)=C1
INCHI=RAFHNDRXYHOLSH-SFTVRKLSSA-N
INCHIAUX=N/A
PUBMED=N/A
LIBRARYQUALITY=1
153.01834	6
163.03906	8
195.02899	2
289.07177	100
289.11019	4
290.07392	3
END IONS

BEGIN IONS
PEPMASS=451.1235
CHARGE=1
MSLEVEL=2
FILENAME=PhenolicsDB_Positive.mgf
SCANS=50
SEQ=*..*
IONMODE=Positive
ORGANISM=N/A
NAME=Eriodictyol 7-O-glucoside 40eV
PI=Jessica Cooperstone
DATACOLECTOR=DOI:10.5281/zenodo.8475
SMILES=OC1=C2C(O[C@@H](CC2=O)C3=CC(O)=C(O)C=C3)=CC(O[C@@H]4O[C@@H]([C@H]([C@@H]([C@H]4O)O)O)CO)=C1
INCHI=RAFHNDRXYHOLSH-SFTVRKLSSA-N
INCHIAUX=N/A
PUBMED=N/A
LIBRARYQUALITY=1
67.01747	2
85.02808	2
89.03804	2
111.00747	4
117.0332	4
123.04385	4
135.04384	7
139.03885	3
145.02835	15
151.03842	2
153.01831	100
153.02578	5
153.04695	3
154.02162	2
163.03901	84
163.04635	4
163.0665	3
164.04232	2
165.01811	4
179.03369	7
187.03859	4
195.02867	5
205.04954	3
219.02819	2
231.02906	3
271.06015	3
289.07072	24
289.08178	2
END IONS

BEGIN IONS
PEPMASS=451.1235
CHARGE=1
MSLEVEL=2
FILENAME=PhenolicsDB_Positive.mgf
SCANS=51
SEQ=*..*
IONMODE=Positive
ORGANISM=N/A
NAME=Eriodictyol 7-O-glucoside 60eV
PI=Jessica Cooperstone
DATACOLECTOR=DOI:10.5281/zenodo.8475
SMILES=OC1=C2C(O[C@@H](CC2=O)C3=CC(O)=C(O)C=C3)=CC(O[C@@H]4O[C@@H]([C@H]([C@@H]([C@H]4O)O)O)CO)=C1
INCHI=RAFHNDRXYHOLSH-SFTVRKLSSA-N
INCHIAUX=N/A
PUBMED=N/A
LIBRARYQUALITY=1
55.01727	2
57.03271	2
67.01753	8
68.99685	8
69.03302	6
77.03852	2
79.05379	3
81.03306	2
83.01259	2
85.02815	3
89.03836	18
93.03311	4
97.02804	4
107.04902	4
111.00761	2
111.04383	2
117.03343	22
117.04106	2
121.02838	2
123.04383	7
135.04398	23
145.02835	17
153.01839	100
153.02609	5
153.04714	3
159.04432	2
163.03897	19
165.01813	2
179.03394	2
END IONS

BEGIN IONS
PEPMASS=451.1235
CHARGE=1
MSLEVEL=2
FILENAME=PhenolicsDB_Positive.mgf
SCANS=52
SEQ=*..*
IONMODE=Positive
ORGANISM=N/A
NAME=Eriodictyol 7-O-glucoside 80eV
PI=Jessica Cooperstone
DATACOLECTOR=DOI:10.5281/zenodo.8475
SMILES=OC1=C2C(O[C@@H](CC2=O)C3=CC(O)=C(O)C=C3)=CC(O[C@@H]4O[C@@H]([C@H]([C@@H]([C@H]4O)O)O)CO)=C1
INCHI=RAFHNDRXYHOLSH-SFTVRKLSSA-N
INCHIAUX=N/A
PUBMED=N/A
LIBRARYQUALITY=1
51.02228	3
53.03808	5
55.01737	17
57.03315	4
63.0225	5
65.03814	14
67.01742	29
67.0232	2
67.05352	2
68.99673	40
69.00277	3
69.0331	32
69.03901	3
77.03823	21
79.01754	6
79.05387	10
81.03332	5
83.01242	8
85.02814	4
89.03832	100
89.04497	6
91.0539	4
92.99686	2
93.03335	9
95.04891	2
97.02819	15
103.05395	3
105.03327	2
107.04912	11
109.02857	2
111.00748	3
111.04401	2
115.05402	2
117.03346	44
117.04131	3
121.02834	2
123.04377	7
125.02316	2
131.04935	3
135.04399	24
135.05226	2
141.06962	2
145.02816	7
153.01826	85
153.02685	6
163.03874	6
165.01843	2
END IONS

BEGIN IONS
PEPMASS=179.03391
CHARGE=1
MSLEVEL=2
FILENAME=PhenolicsDB_Positive.mgf
SCANS=53
SEQ=*..*
IONMODE=Positive
ORGANISM=N/A
NAME=Esculetin 20eV
PI=Jessica Cooperstone
DATACOLECTOR=DOI:10.5281/zenodo.8475
SMILES=OC1=C(O)C=C(C=CC(O2)=O)C2=C1
INCHI=ILEDWLMCKZNDJK-UHFFFAOYSA-N
INCHIAUX=N/A
PUBMED=N/A
LIBRARYQUALITY=1
77.03863	6
89.03868	4
95.04918	2
105.03368	7
117.03375	3
123.04511	100
123.07012	4
133.02927	61
133.05584	2
135.04438	6
151.03934	11
179.03484	50
179.06565	2
END IONS

BEGIN IONS
PEPMASS=179.03391
CHARGE=1
MSLEVEL=2
FILENAME=PhenolicsDB_Positive.mgf
SCANS=54
SEQ=*..*
IONMODE=Positive
ORGANISM=N/A
NAME=Esculetin 40eV
PI=Jessica Cooperstone
DATACOLECTOR=DOI:10.5281/zenodo.8475
SMILES=OC1=C(O)C=C(C=CC(O2)=O)C2=C1
INCHI=ILEDWLMCKZNDJK-UHFFFAOYSA-N
INCHIAUX=N/A
PUBMED=N/A
LIBRARYQUALITY=1
51.02272	47
51.03934	2
53.03819	5
55.01744	3
63.02263	3
65.03829	2
67.054	5
68.99693	4
77.03894	100
77.05884	3
89.03847	5
95.04904	2
105.03347	15
123.04411	20
133.02836	4
END IONS

BEGIN IONS
PEPMASS=179.03391
CHARGE=1
MSLEVEL=2
FILENAME=PhenolicsDB_Positive.mgf
SCANS=55
SEQ=*..*
IONMODE=Positive
ORGANISM=N/A
NAME=Esculetin 60eV
PI=Jessica Cooperstone
DATACOLECTOR=DOI:10.5281/zenodo.8475
SMILES=OC1=C(O)C=C(C=CC(O2)=O)C2=C1
INCHI=ILEDWLMCKZNDJK-UHFFFAOYSA-N
INCHIAUX=N/A
PUBMED=N/A
LIBRARYQUALITY=1
50.01473	4
51.02293	100
51.03936	3
53.03831	4
62.01486	2
63.02267	5
68.99694	4
77.03853	14
END IONS

BEGIN IONS
PEPMASS=179.03391
CHARGE=1
MSLEVEL=2
FILENAME=PhenolicsDB_Positive.mgf
SCANS=56
SEQ=*..*
IONMODE=Positive
ORGANISM=N/A
NAME=Esculetin 80eV
PI=Jessica Cooperstone
DATACOLECTOR=DOI:10.5281/zenodo.8475
SMILES=OC1=C(O)C=C(C=CC(O2)=O)C2=C1
INCHI=ILEDWLMCKZNDJK-UHFFFAOYSA-N
INCHIAUX=N/A
PUBMED=N/A
LIBRARYQUALITY=1
50.01364	9
50.01589	11
51.02272	100
51.02735	4
53.00176	4
53.03819	2
61.00691	3
62.01483	9
63.02271	6
68.99686	5
74.01505	2
77.03831	2
86.01502	2
END IONS

BEGIN IONS
PEPMASS=195.06511
CHARGE=1
MSLEVEL=2
FILENAME=PhenolicsDB_Positive.mgf
SCANS=57
SEQ=*..*
IONMODE=Positive
ORGANISM=N/A
NAME=Ferrulic acid 20eV
PI=Jessica Cooperstone
DATACOLECTOR=DOI:10.5281/zenodo.8475
SMILES=COC1=C(C=CC(=C1)C=CC(=O)O)O
INCHI=KSEBMYQBYZTDHS-HWKANZROSA-N
INCHIAUX=N/A
PUBMED=N/A
LIBRARYQUALITY=1
103.05368	2
106.04083	3
117.03299	73
134.03575	9
145.02777	100
149.059	33
162.03037	3
177.05426	28
END IONS

BEGIN IONS
PEPMASS=195.06511
CHARGE=1
MSLEVEL=2
FILENAME=PhenolicsDB_Positive.mgf
SCANS=58
SEQ=*..*
IONMODE=Positive
ORGANISM=N/A
NAME=Ferrulic acid 40eV
PI=Jessica Cooperstone
DATACOLECTOR=DOI:10.5281/zenodo.8475
SMILES=COC1=C(C=CC(=C1)C=CC(=O)O)O
INCHI=KSEBMYQBYZTDHS-HWKANZROSA-N
INCHIAUX=N/A
PUBMED=N/A
LIBRARYQUALITY=1
101.03857	2
103.05388	8
105.03339	61
106.04107	60
107.04888	11
108.02032	3
110.03568	2
117.03329	100
118.04092	5
121.0645	2
133.02748	2
134.03599	87
135.04376	6
145.02798	2
149.05932	10
END IONS

BEGIN IONS
PEPMASS=287.05493
CHARGE=1
MSLEVEL=2
FILENAME=PhenolicsDB_Positive.mgf
SCANS=59
SEQ=*..*
IONMODE=Positive
ORGANISM=N/A
NAME=Fisetin 20eV
PI=Jessica Cooperstone
DATACOLECTOR=DOI:10.5281/zenodo.8475
SMILES=C1=CC(=C(C=C1C2=C(C(=O)C3=C(O2)C=C(C=C3)O)O)O)O
INCHI=XHEFDIBZLJXQHF-UHFFFAOYSA-N
INCHIAUX=N/A
PUBMED=N/A
LIBRARYQUALITY=1
137.02297	3
149.02296	2
213.05408	2
241.04888	2
287.05488	100
END IONS

BEGIN IONS
PEPMASS=287.05493
CHARGE=1
MSLEVEL=2
FILENAME=PhenolicsDB_Positive.mgf
SCANS=60
SEQ=*..*
IONMODE=Positive
ORGANISM=N/A
NAME=Fisetin 40eV
PI=Jessica Cooperstone
DATACOLECTOR=DOI:10.5281/zenodo.8475
SMILES=C1=CC(=C(C=C1C2=C(C(=O)C3=C(O2)C=C(C=C3)O)O)O)O
INCHI=XHEFDIBZLJXQHF-UHFFFAOYSA-N
INCHIAUX=N/A
PUBMED=N/A
LIBRARYQUALITY=1
105.0331	3
107.04881	2
109.02824	14
111.04375	2
115.05413	5
121.02834	31
123.04379	7
127.05391	4
128.06184	9
129.06962	10
137.02306	100
139.05387	11
141.06954	3
143.04906	2
147.04343	2
149.0229	13
150.03078	2
157.06446	29
160.05134	2
161.05941	2
163.03864	5
167.0487	8
168.05644	2
171.04339	2
175.07479	2
184.05157	3
185.05943	29
187.03874	2
189.05411	2
195.04337	4
203.06977	2
212.04629	3
213.05442	42
216.0407	2
223.03826	4
229.04919	2
231.06461	3
241.04882	10
258.05174	2
269.04373	4
287.0543	7
END IONS

BEGIN IONS
PEPMASS=171.02872
CHARGE=1
MSLEVEL=2
FILENAME=PhenolicsDB_Positive.mgf
SCANS=61
SEQ=*..*
IONMODE=Positive
ORGANISM=N/A
NAME=Gallic acid 20eV
PI=Jessica Cooperstone
DATACOLECTOR=DOI:10.5281/zenodo.8475
SMILES=C1=CC=C(C=C1)COC(=O)C2=CC(=C3C(=C2)OC(O3)(C4=CC=CC=C4)C5=CC=CC=C5)O
INCHI=FFMYRWYMARPJCC-UHFFFAOYSA-N
INCHIAUX=N/A
PUBMED=N/A
LIBRARYQUALITY=1
107.01257	100
109.02822	96
125.02324	44
127.03858	8
135.00723	9
153.01781	31
END IONS

BEGIN IONS
PEPMASS=171.02872
CHARGE=1
MSLEVEL=2
FILENAME=PhenolicsDB_Positive.mgf
SCANS=62
SEQ=*..*
IONMODE=Positive
ORGANISM=N/A
NAME=Gallic acid 40eV
PI=Jessica Cooperstone
DATACOLECTOR=DOI:10.5281/zenodo.8475
SMILES=C1=CC=C(C=C1)COC(=O)C2=CC(=C3C(=C2)OC(O3)(C4=CC=CC=C4)C5=CC=CC=C5)O
INCHI=FFMYRWYMARPJCC-UHFFFAOYSA-N
INCHIAUX=N/A
PUBMED=N/A
LIBRARYQUALITY=1
107.01252	100
108.02019	6
109.02812	13
125.02256	8
126.03021	4
END IONS

BEGIN IONS
PEPMASS=435.09219
CHARGE=1
MSLEVEL=2
FILENAME=PhenolicsDB_Positive.mgf
SCANS=63
SEQ=*..*
IONMODE=Positive
ORGANISM=N/A
NAME=Guaijaverin 20eV
PI=Jessica Cooperstone
DATACOLECTOR=DOI:10.5281/zenodo.8475
SMILES=OC1=C2C(OC(C3=CC=C(O)C(O)=C3)=C(O[C@H]4[C@H](O)[C@@H](O)[C@@H](O)CO4)C2=O)=CC(O)=C1
INCHI=PZZRDJXEMZMZFD-IEGSVRCHSA-N
INCHIAUX=N/A
PUBMED=N/A
LIBRARYQUALITY=1
61.02836	2
73.02861	12
303.05215	100
303.09036	4
304.05397	2
END IONS

BEGIN IONS
PEPMASS=435.09219
CHARGE=1
MSLEVEL=2
FILENAME=PhenolicsDB_Positive.mgf
SCANS=64
SEQ=*..*
IONMODE=Positive
ORGANISM=N/A
NAME=Guaijaverin 40eV
PI=Jessica Cooperstone
DATACOLECTOR=DOI:10.5281/zenodo.8475
SMILES=OC1=C2C(OC(C3=CC=C(O)C(O)=C3)=C(O[C@H]4[C@H](O)[C@@H](O)[C@@H](O)CO4)C2=O)=CC(O)=C1
INCHI=PZZRDJXEMZMZFD-IEGSVRCHSA-N
INCHIAUX=N/A
PUBMED=N/A
LIBRARYQUALITY=1
57.03331	2
61.02818	4
73.02837	23
121.02857	2
137.02346	4
153.0185	5
165.01863	5
201.0549	2
229.05004	6
247.06065	2
257.04504	6
274.04806	2
285.03999	3
303.0516	100
303.09111	4
304.05407	2
END IONS

BEGIN IONS
PEPMASS=435.09219
CHARGE=1
MSLEVEL=2
FILENAME=PhenolicsDB_Positive.mgf
SCANS=65
SEQ=*..*
IONMODE=Positive
ORGANISM=N/A
NAME=Guaijaverin 60eV
PI=Jessica Cooperstone
DATACOLECTOR=DOI:10.5281/zenodo.8475
SMILES=OC1=C2C(OC(C3=CC=C(O)C(O)=C3)=C(O[C@H]4[C@H](O)[C@@H](O)[C@@H](O)CO4)C2=O)=CC(O)=C1
INCHI=PZZRDJXEMZMZFD-IEGSVRCHSA-N
INCHIAUX=N/A
PUBMED=N/A
LIBRARYQUALITY=1
53.03841	3
55.01763	12
57.03337	20
57.03891	2
61.0283	19
65.03846	8
67.01758	7
67.05412	5
68.99702	30
69.00309	2
69.03323	8
71.01298	4
73.02845	69
73.03444	4
77.03844	5
81.0336	13
85.02845	5
91.05393	2
93.0334	6
95.04906	8
97.0283	2
103.05425	2
105.0334	5
105.06977	2
107.01314	2
107.04905	3
109.02841	21
109.03612	2
111.00766	14
115.05418	4
117.07006	7
121.02851	17
123.04438	7
127.0393	2
127.05439	9
129.07034	2
131.04955	6
133.02827	2
133.06484	2
135.04443	5
137.02354	62
137.03171	4
143.04965	2
145.02827	3
145.06506	9
147.04409	2
149.02377	4
153.01847	100
153.02707	7
155.04944	21
155.05838	2
159.04412	4
161.05981	7
163.03907	11
165.01837	29
165.02733	2
166.0263	4
173.02345	2
173.05991	19
173.06937	2
177.01789	2
177.0547	3
179.03391	7
183.04411	19
183.0533	2
184.05199	3
187.03909	13
191.03431	2
191.07024	2
195.0293	2
200.04678	3
201.05477	38
201.06445	3
203.03451	2
205.05016	3
207.02924	2
211.03907	7
215.03401	2
219.02895	2
219.06545	5
228.04199	9
229.04985	71
229.06033	6
232.0372	2
239.03421	6
245.04462	3
247.06026	5
256.03677	2
257.04448	26
257.05506	2
274.04724	9
285.03972	12
286.04785	2
303.05002	40
303.06084	3
END IONS

BEGIN IONS
PEPMASS=435.09219
CHARGE=1
MSLEVEL=2
FILENAME=PhenolicsDB_Positive.mgf
SCANS=66
SEQ=*..*
IONMODE=Positive
ORGANISM=N/A
NAME=Guaijaverin 80eV
PI=Jessica Cooperstone
DATACOLECTOR=DOI:10.5281/zenodo.8475
SMILES=OC1=C2C(OC(C3=CC=C(O)C(O)=C3)=C(O[C@H]4[C@H](O)[C@@H](O)[C@@H](O)CO4)C2=O)=CC(O)=C1
INCHI=PZZRDJXEMZMZFD-IEGSVRCHSA-N
INCHIAUX=N/A
PUBMED=N/A
LIBRARYQUALITY=1
51.02268	7
53.03828	13
55.01766	33
55.02304	2
57.03334	22
57.03884	2
61.02818	10
63.02279	2
65.03847	20
67.01762	21
67.05418	11
68.99702	100
69.00281	7
69.03343	21
71.0127	3
73.02844	27
73.03463	2
75.02294	3
77.03856	34
77.04478	3
79.01789	4
79.05438	3
81.03349	37
81.04004	3
83.01292	4
85.02838	3
89.03888	5
91.01791	3
91.05435	11
93.03351	7
95.01316	2
95.04917	8
97.02832	8
101.03833	2
103.05431	11
105.03367	11
105.07012	3
107.01264	3
107.04962	6
108.02067	4
109.02864	28
109.03591	2
110.03651	2
111.00789	6
113.0383	2
115.05426	25
115.06188	2
116.06236	3
117.03331	2
117.06996	13
119.04927	2
121.02863	17
121.03678	2
123.04393	6
126.04677	3
127.0544	43
127.06245	3
128.06223	7
129.07061	2
131.04922	12
133.02896	2
135.04446	5
136.01603	2
137.02353	33
137.03183	2
139.05397	3
143.0493	2
144.05705	2
145.02845	3
145.06501	9
147.04398	3
149.02356	3
153.01845	82
153.02705	6
155.04921	50
155.05832	3
159.04357	4
160.05244	2
161.02327	2
161.05988	4
163.03953	5
165.01846	6
171.0446	3
173.05985	12
177.01829	2
179.03442	6
183.0443	13
184.05184	5
187.03933	9
200.04629	4
201.0548	13
203.03399	6
211.03932	7
217.049	2
228.04182	5
229.0498	19
229.0603	2
232.03762	2
239.03385	2
245.0444	4
257.04423	4
285.04078	3
END IONS

BEGIN IONS
PEPMASS=303.04984
CHARGE=1
MSLEVEL=2
FILENAME=PhenolicsDB_Positive.mgf
SCANS=67
SEQ=*..*
IONMODE=Positive
ORGANISM=N/A
NAME=Herbacetin 20eV
PI=Jessica Cooperstone
DATACOLECTOR=DOI:10.5281/zenodo.8475
SMILES=C1=CC(=CC=C1C2=C(C(=O)C3=C(O2)C(=C(C=C3O)O)O)O)O
INCHI=ZDOTZEDNGNPOEW-UHFFFAOYSA-N
INCHIAUX=N/A
PUBMED=N/A
LIBRARYQUALITY=1
100.11208	12
110.06015	2
141.11495	3
169.01296	2
182.15327	4
199.17892	2
209.16464	2
210.14933	3
303.04983	100
343.30583	3
END IONS

BEGIN IONS
PEPMASS=303.04984
CHARGE=1
MSLEVEL=2
FILENAME=PhenolicsDB_Positive.mgf
SCANS=68
SEQ=*..*
IONMODE=Positive
ORGANISM=N/A
NAME=Herbacetin 40eV
PI=Jessica Cooperstone
DATACOLECTOR=DOI:10.5281/zenodo.8475
SMILES=C1=CC(=CC=C1C2=C(C(=O)C3=C(O2)C(=C(C=C3O)O)O)O)O
INCHI=ZDOTZEDNGNPOEW-UHFFFAOYSA-N
INCHIAUX=N/A
PUBMED=N/A
LIBRARYQUALITY=1
103.054	2
105.03315	6
107.01273	2
107.04893	18
113.02287	3
115.05413	3
117.0698	4
121.02802	44
123.00728	15
125.02259	6
127.05417	7
131.04896	16
133.02759	2
133.06527	2
135.04385	4
139.00153	4
141.01935	2
145.06422	5
147.04357	3
151.00257	3
153.01744	7
155.04858	9
159.04331	6
163.00226	2
166.99761	2
169.01263	100
173.05925	7
181.01278	7
183.04324	6
187.03858	3
201.05452	4
211.0384	2
228.04063	2
229.04845	6
245.04384	2
247.05935	3
257.04334	4
274.04681	4
275.0543	3
285.03813	2
303.04903	21
END IONS

BEGIN IONS
PEPMASS=465.10266
CHARGE=1
MSLEVEL=2
FILENAME=PhenolicsDB_Positive.mgf
SCANS=69
SEQ=*..*
IONMODE=Positive
ORGANISM=N/A
NAME=Isoquercitrin 20eV
PI=Jessica Cooperstone
DATACOLECTOR=DOI:10.5281/zenodo.8475
SMILES=C1=CC(=C(C=C1C2=C(C(=O)C3=C(C=C(C=C3O2)O)O)OC4C(C(C(C(O4)CO)O)O)O)O)O
INCHI=OVSQVDMCBVZWGM-LQSBFMDOSA-N
INCHIAUX=N/A
PUBMED=N/A
LIBRARYQUALITY=1
127.03897	2
145.04941	2
303.05057	100
304.05325	3
END IONS

BEGIN IONS
PEPMASS=465.10266
CHARGE=1
MSLEVEL=2
FILENAME=PhenolicsDB_Positive.mgf
SCANS=70
SEQ=*..*
IONMODE=Positive
ORGANISM=N/A
NAME=Isoquercitrin 40eV
PI=Jessica Cooperstone
DATACOLECTOR=DOI:10.5281/zenodo.8475
SMILES=C1=CC(=C(C=C1C2=C(C(=O)C3=C(C=C(C=C3O2)O)O)OC4C(C(C(C(O4)CO)O)O)O)O)O
INCHI=OVSQVDMCBVZWGM-LQSBFMDOSA-N
INCHIAUX=N/A
PUBMED=N/A
LIBRARYQUALITY=1
109.02806	2
137.02306	3
153.0178	3
165.01794	3
229.04896	4
257.04391	3
285.03879	2
303.04981	100
304.05276	3
END IONS

BEGIN IONS
PEPMASS=465.10433
CHARGE=1
MSLEVEL=2
FILENAME=PhenolicsDB_Positive.mgf
SCANS=71
SEQ=*..*
IONMODE=Positive
ORGANISM=N/A
NAME=Isoquercitroside 20eV
PI=Jessica Cooperstone
DATACOLECTOR=DOI:10.5281/zenodo.8475
SMILES=OC1=CC(O)=C(C(C(O[C@@H]2O[C@@]([C@H](O)CO)([H])[C@H](O)[C@H]2O)=C(C3=CC=C(O)C(O)=C3)O4)=O)C4=C1
INCHI=OPJZLUXFQFQYAI-GNPVFZCLSA-N
INCHIAUX=N/A
PUBMED=N/A
LIBRARYQUALITY=1
69.03335	2
85.02813	9
97.02826	3
127.03911	2
145.04955	3
303.05095	100
303.09047	5
304.05352	18
305.05568	3
END IONS

BEGIN IONS
PEPMASS=465.10433
CHARGE=1
MSLEVEL=2
FILENAME=PhenolicsDB_Positive.mgf
SCANS=72
SEQ=*..*
IONMODE=Positive
ORGANISM=N/A
NAME=Isoquercitroside 40eV
PI=Jessica Cooperstone
DATACOLECTOR=DOI:10.5281/zenodo.8475
SMILES=OC1=CC(O)=C(C(C(O[C@@H]2O[C@@]([C@H](O)CO)([H])[C@H](O)[C@H]2O)=C(C3=CC=C(O)C(O)=C3)O4)=O)C4=C1
INCHI=OPJZLUXFQFQYAI-GNPVFZCLSA-N
INCHIAUX=N/A
PUBMED=N/A
LIBRARYQUALITY=1
43.01744	3
43.05399	2
53.03804	2
55.01734	2
57.03312	3
61.02818	6
69.03338	9
73.02809	2
81.03351	5
85.02833	16
97.02837	6
109.02856	2
111.00738	2
121.0281	2
137.02304	4
153.01843	6
163.03966	2
165.01801	6
201.05418	3
229.04975	6
257.04424	5
274.04711	2
285.03997	2
303.05066	100
303.06136	4
303.09019	4
304.05369	23
305.05605	4
END IONS

BEGIN IONS
PEPMASS=317.065
CHARGE=1
MSLEVEL=2
FILENAME=PhenolicsDB_Positive.mgf
SCANS=73
SEQ=*..*
IONMODE=Positive
ORGANISM=N/A
NAME=Isorhamnetin 20eV
PI=Jessica Cooperstone
DATACOLECTOR=DOI:10.5281/zenodo.8475
SMILES=COC1=C(C=CC(=C1)C2=C(C(=O)C3=C(C=C(C=C3O2)O)O)O)O
INCHI=IZQSVPBOUDKVDZ-UHFFFAOYSA-N
INCHIAUX=N/A
PUBMED=N/A
LIBRARYQUALITY=1
285.03866	3
302.04179	11
317.06554	100
END IONS

BEGIN IONS
PEPMASS=317.0656
CHARGE=1
MSLEVEL=2
FILENAME=PhenolicsDB_Positive.mgf
SCANS=74
SEQ=*..*
IONMODE=Positive
ORGANISM=N/A
NAME=Isorhamnetin 40eV
PI=Jessica Cooperstone
DATACOLECTOR=DOI:10.5281/zenodo.8475
SMILES=COC1=C(C=CC(=C1)C2=C(C(=O)C3=C(C=C(C=C3O2)O)O)O)O
INCHI=IZQSVPBOUDKVDZ-UHFFFAOYSA-N
INCHIAUX=N/A
PUBMED=N/A
LIBRARYQUALITY=1
109.02817	2
120.02015	2
121.02807	12
122.0355	4
123.04322	2
126.03057	10
136.01431	2
137.02318	4
139.03791	2
145.06364	2
150.03064	2
151.03815	5
152.01046	2
153.01809	100
155.04854	3
165.01895	3
166.02618	2
173.05864	3
179.0323	3
183.044	4
187.03833	2
189.05254	2
190.0621	2
192.04039	2
200.0458	5
201.05432	10
203.03341	13
204.04028	2
217.04882	27
218.05743	8
219.0278	4
228.04144	25
229.04874	38
231.0272	7
232.0362	2
245.04405	28
246.05106	18
256.03458	3
257.04355	13
260.03168	4
273.03842	16
274.04615	16
284.03086	3
285.03895	18
287.01729	2
301.03307	4
302.04162	22
317.06452	3
END IONS

BEGIN IONS
PEPMASS=193.0495
CHARGE=1
MSLEVEL=2
FILENAME=PhenolicsDB_Positive.mgf
SCANS=75
SEQ=*..*
IONMODE=Positive
ORGANISM=N/A
NAME=Isoscopoletin 20eV
PI=Jessica Cooperstone
DATACOLECTOR=DOI:10.5281/zenodo.8475
SMILES=O=C1OC2=C(C=C1)C=C(O)C(OC)=C2
INCHI=SYTYLPHCLSSCOJ-UHFFFAOYSA-N
INCHIAUX=N/A
PUBMED=N/A
LIBRARYQUALITY=1
66.04627	2
77.03841	3
94.04122	4
105.03352	11
122.0364	13
133.02916	100
133.05549	4
137.05996	31
137.06721	2
149.05986	3
150.03124	10
165.0549	8
178.0269	83
178.05741	3
193.05037	75
193.08229	3
END IONS

BEGIN IONS
PEPMASS=193.0495
CHARGE=1
MSLEVEL=2
FILENAME=PhenolicsDB_Positive.mgf
SCANS=76
SEQ=*..*
IONMODE=Positive
ORGANISM=N/A
NAME=Isoscopoletin 40eV
PI=Jessica Cooperstone
DATACOLECTOR=DOI:10.5281/zenodo.8475
SMILES=O=C1OC2=C(C=C1)C=C(O)C(OC)=C2
INCHI=SYTYLPHCLSSCOJ-UHFFFAOYSA-N
INCHIAUX=N/A
PUBMED=N/A
LIBRARYQUALITY=1
51.0227	15
53.03841	32
55.01764	2
65.03845	12
66.0464	76
66.05149	3
66.06544	3
68.02534	2
68.99695	6
76.0306	2
77.03863	57
77.04432	3
78.04636	4
79.01776	4
79.05407	2
81.0336	61
81.03933	3
89.03852	2
91.05393	2
93.03345	2
94.0416	100
94.04784	4
94.0642	3
105.03362	30
105.04034	2
121.02857	12
122.03655	57
122.04327	3
133.02851	10
137.05988	8
150.03149	34
150.03895	2
161.02346	6
178.02635	8
END IONS

BEGIN IONS
PEPMASS=193.0495
CHARGE=1
MSLEVEL=2
FILENAME=PhenolicsDB_Positive.mgf
SCANS=77
SEQ=*..*
IONMODE=Positive
ORGANISM=N/A
NAME=Isoscopoletin 60eV
PI=Jessica Cooperstone
DATACOLECTOR=DOI:10.5281/zenodo.8475
SMILES=O=C1OC2=C(C=C1)C=C(O)C(OC)=C2
INCHI=SYTYLPHCLSSCOJ-UHFFFAOYSA-N
INCHIAUX=N/A
PUBMED=N/A
LIBRARYQUALITY=1
50.01451	10
51.02238	61
51.02691	3
52.03017	7
53.00156	4
53.03811	100
53.04281	5
55.0173	7
63.02234	3
65.03816	55
65.04348	3
66.04597	70
66.05104	4
68.02506	3
68.99664	19
75.02253	2
76.03046	7
77.0382	29
77.04455	2
78.04579	2
79.01746	7
81.03312	23
81.03943	2
93.03306	3
94.041	20
105.03315	8
121.02816	6
122.03607	2
END IONS

BEGIN IONS
PEPMASS=193.0495
CHARGE=1
MSLEVEL=2
FILENAME=PhenolicsDB_Positive.mgf
SCANS=78
SEQ=*..*
IONMODE=Positive
ORGANISM=N/A
NAME=Isoscopoletin 80eV
PI=Jessica Cooperstone
DATACOLECTOR=DOI:10.5281/zenodo.8475
SMILES=O=C1OC2=C(C=C1)C=C(O)C(OC)=C2
INCHI=SYTYLPHCLSSCOJ-UHFFFAOYSA-N
INCHIAUX=N/A
PUBMED=N/A
LIBRARYQUALITY=1
50.01476	35
50.01997	3
51.02264	100
51.02731	6
52.03046	7
53.00197	11
53.03828	58
53.04344	3
55.01748	6
62.01487	3
63.0228	6
65.03834	50
65.0441	4
66.04625	22
68.99697	24
69.00284	2
74.01487	5
75.02282	5
76.03066	3
77.03843	9
79.01772	3
81.03331	3
END IONS

BEGIN IONS
PEPMASS=301.0705
CHARGE=1
MSLEVEL=2
FILENAME=PhenolicsDB_Positive.mgf
SCANS=79
SEQ=*..*
IONMODE=Positive
ORGANISM=N/A
NAME=Kaempferide 20eV
PI=Jessica Cooperstone
DATACOLECTOR=DOI:10.5281/zenodo.8475
SMILES=COC1=CC=C(C=C1)C2=C(C(=O)C3=C(C=C(C=C3O2)O)O)O
INCHI=SQFSKOYWJBQGKQ-UHFFFAOYSA-N
INCHIAUX=N/A
PUBMED=N/A
LIBRARYQUALITY=1
139.0389	2
240.23144	6
286.04809	2
301.07021	100
END IONS

BEGIN IONS
PEPMASS=301.0705
CHARGE=1
MSLEVEL=2
FILENAME=PhenolicsDB_Positive.mgf
SCANS=80
SEQ=*..*
IONMODE=Positive
ORGANISM=N/A
NAME=Kaempferide 40eV
PI=Jessica Cooperstone
DATACOLECTOR=DOI:10.5281/zenodo.8475
SMILES=COC1=CC=C(C=C1)C2=C(C(=O)C3=C(C=C(C=C3O2)O)O)O
INCHI=SQFSKOYWJBQGKQ-UHFFFAOYSA-N
INCHIAUX=N/A
PUBMED=N/A
LIBRARYQUALITY=1
105.03367	4
106.04095	13
107.0489	13
108.02118	2
109.02789	5
119.049	3
121.06486	8
124.01529	9
128.06243	2
132.0197	3
133.06357	2
134.03549	3
135.04354	18
136.01407	2
137.02287	7
139.03858	14
146.03558	3
149.05858	3
150.03199	2
152.00934	13
153.01783	70
155.04732	2
157.06408	2
160.01561	2
161.02288	2
161.05929	6
165.01747	15
171.0416	2
171.08048	2
173.0592	3
174.06708	2
176.04589	2
184.05086	10
185.05883	6
187.03797	3
201.05346	25
202.06234	10
203.03164	2
212.04698	10
213.05394	12
227.06922	2
229.04864	91
230.05664	100
240.04106	2
241.04851	3
242.05605	2
243.02894	4
245.07884	2
255.0653	2
257.04425	18
258.05172	66
269.04285	15
272.0671	2
285.03717	4
286.04609	16
301.06964	19
END IONS

BEGIN IONS
PEPMASS=287.05493
CHARGE=1
MSLEVEL=2
FILENAME=PhenolicsDB_Positive.mgf
SCANS=81
SEQ=*..*
IONMODE=Positive
ORGANISM=N/A
NAME=Kaempferol 20eV
PI=Jessica Cooperstone
DATACOLECTOR=DOI:10.5281/zenodo.8475
SMILES=C1=CC(=CC=C1C2=C(C(=O)C3=C(C=C(C=C3O2)O)O)O)O
INCHI=IYRMWMYZSQPJKC-UHFFFAOYSA-N
INCHIAUX=N/A
PUBMED=N/A
LIBRARYQUALITY=1
153.01756	2
287.05221	100
END IONS

BEGIN IONS
PEPMASS=287.05493
CHARGE=1
MSLEVEL=2
FILENAME=PhenolicsDB_Positive.mgf
SCANS=82
SEQ=*..*
IONMODE=Positive
ORGANISM=N/A
NAME=Kaempferol 40eV
PI=Jessica Cooperstone
DATACOLECTOR=DOI:10.5281/zenodo.8475
SMILES=C1=CC(=CC=C1C2=C(C(=O)C3=C(C=C(C=C3O2)O)O)O)O
INCHI=IYRMWMYZSQPJKC-UHFFFAOYSA-N
INCHIAUX=N/A
PUBMED=N/A
LIBRARYQUALITY=1
103.05408	2
105.03333	9
107.04909	14
109.0283	7
111.00751	6
115.05399	5
117.0695	2
119.04897	3
121.02845	49
127.05351	5
128.06161	5
129.06953	5
131.04856	2
133.0281	4
135.04375	3
136.01495	2
137.02302	15
139.05367	3
141.06931	2
143.04897	3
145.06425	3
147.04364	10
153.0179	100
157.06435	16
161.05883	3
165.01776	18
167.0488	2
171.04375	6
184.0512	2
185.05907	7
213.05402	18
216.04077	2
229.04922	5
231.06416	4
241.04844	5
258.05138	9
259.05922	2
269.04339	2
287.05433	20
END IONS

BEGIN IONS
PEPMASS=505.17679
CHARGE=1
MSLEVEL=2
FILENAME=PhenolicsDB_Positive.mgf
SCANS=83
SEQ=*..*
IONMODE=Positive
ORGANISM=N/A
NAME=Melezitose 20eV
PI=Jessica Cooperstone
DATACOLECTOR=DOI:10.5281/zenodo.8475
SMILES=C(C1C(C(C(C(O1)OC2C(C(OC2(CO)OC3C(C(C(C(O3)CO)O)O)O)CO)O)O)O)O)O
INCHI=QWIZNVHXZXRPDR-WSCXOGSTSA-N
INCHIAUX=N/A
PUBMED=N/A
LIBRARYQUALITY=1
109.02725	2
116.04367	4
127.0398	46
128.04235	22
128.07232	3
145.04992	100
146.05177	41
146.54977	2
163.05994	26
164.06531	5
182.07622	4
187.05653	2
189.04978	5
241.07058	3
247.0788	2
248.08628	2
254.07217	3
272.08877	3
289.08887	2
290.09985	8
315.22587	2
326.11891	2
326.33578	2
452.13498	2
473.13975	3
505.3183	6
505.40151	2
565.65861	3
END IONS

BEGIN IONS
PEPMASS=505.17679
CHARGE=1
MSLEVEL=2
FILENAME=PhenolicsDB_Positive.mgf
SCANS=84
SEQ=*..*
IONMODE=Positive
ORGANISM=N/A
NAME=Melezitose 40eV
PI=Jessica Cooperstone
DATACOLECTOR=DOI:10.5281/zenodo.8475
SMILES=C(C1C(C(C(C(O1)OC2C(C(OC2(CO)OC3C(C(C(C(O3)CO)O)O)O)CO)O)O)O)O)O
INCHI=QWIZNVHXZXRPDR-WSCXOGSTSA-N
INCHIAUX=N/A
PUBMED=N/A
LIBRARYQUALITY=1
100.04856	5
101.01819	3
109.03145	6
109.06401	2
110.03017	3
113.02065	8
115.03805	38
116.04439	17
119.01574	10
126.05125	11
127.03991	96
127.08293	3
127.7986	2
128.04225	100
128.81168	2
135.0443	2
143.95336	2
145.0496	20
146.05381	4
147.05427	6
166.05755	2
184.06947	2
193.04796	5
194.04494	9
216.31407	8
242.55841	2
325.15321	3
407.1975	4
505.33204	20
506.33611	3
754.08512	3
1043.76532	2
END IONS

BEGIN IONS
PEPMASS=625.17621
CHARGE=1
MSLEVEL=2
FILENAME=PhenolicsDB_Positive.mgf
SCANS=85
SEQ=*..*
IONMODE=Positive
ORGANISM=N/A
NAME=Narcissin 20eV
PI=Jessica Cooperstone
DATACOLECTOR=DOI:10.5281/zenodo.8475
SMILES=CC1C(C(C(C(O1)OCC2C(C(C(C(O2)OC3=C(OC4=CC(=CC(=C4C3=O)O)O)C5=CC(=C(C=C5)O)OC)O)O)O)O)O)O
INCHI=UIDGLYUNOUKLBM-GEBJFKNCSA-N
INCHIAUX=N/A
PUBMED=N/A
LIBRARYQUALITY=1
129.05465	6
317.06561	100
318.06857	4
479.11768	2
END IONS

BEGIN IONS
PEPMASS=625.17621
CHARGE=1
MSLEVEL=2
FILENAME=PhenolicsDB_Positive.mgf
SCANS=86
SEQ=*..*
IONMODE=Positive
ORGANISM=N/A
NAME=Narcissin 40eV
PI=Jessica Cooperstone
DATACOLECTOR=DOI:10.5281/zenodo.8475
SMILES=CC1C(C(C(C(O1)OCC2C(C(C(C(O2)OC3=C(OC4=CC(=CC(=C4C3=O)O)O)C5=CC(=C(C=C5)O)OC)O)O)O)O)O)O
INCHI=UIDGLYUNOUKLBM-GEBJFKNCSA-N
INCHIAUX=N/A
PUBMED=N/A
LIBRARYQUALITY=1
129.05433	2
302.04163	2
317.06528	100
318.06839	4
END IONS

BEGIN IONS
PEPMASS=273.07568
CHARGE=1
MSLEVEL=2
FILENAME=PhenolicsDB_Positive.mgf
SCANS=87
SEQ=*..*
IONMODE=Positive
ORGANISM=N/A
NAME=Naringenin 20eV
PI=Jessica Cooperstone
DATACOLECTOR=DOI:10.5281/zenodo.8475
SMILES=C1C(OC2=CC(=CC(=C2C1=O)O)O)C3=CC=C(C=C3)O
INCHI=FTVWIRXFELQLPI-UHFFFAOYSA-N
INCHIAUX=N/A
PUBMED=N/A
LIBRARYQUALITY=1
107.04921	2
119.04919	2
123.04365	3
147.04389	32
153.01806	100
273.07526	24
273.16638	3
END IONS

BEGIN IONS
PEPMASS=273.07568
CHARGE=1
MSLEVEL=2
FILENAME=PhenolicsDB_Positive.mgf
SCANS=88
SEQ=*..*
IONMODE=Positive
ORGANISM=N/A
NAME=Naringenin 40eV
PI=Jessica Cooperstone
DATACOLECTOR=DOI:10.5281/zenodo.8475
SMILES=C1C(OC2=CC(=CC(=C2C1=O)O)O)C3=CC=C(C=C3)O
INCHI=FTVWIRXFELQLPI-UHFFFAOYSA-N
INCHIAUX=N/A
PUBMED=N/A
LIBRARYQUALITY=1
107.04892	4
111.00714	2
119.0488	32
123.04408	2
125.02356	3
147.04337	11
153.01772	100
END IONS

BEGIN IONS
PEPMASS=581.1864
CHARGE=1
MSLEVEL=2
FILENAME=PhenolicsDB_Positive.mgf
SCANS=89
SEQ=*..*
IONMODE=Positive
ORGANISM=N/A
NAME=Naringin 20eV
PI=Jessica Cooperstone
DATACOLECTOR=DOI:10.5281/zenodo.8475
SMILES=CC1C(C(C(C(O1)OC2C(C(C(OC2OC3=CC(=C4C(=O)CC(OC4=C3)C5=CC=C(C=C5)O)O)CO)O)O)O)O)O
INCHI=DFPMSGMNTNDNHN-ZPHOTFPESA-N
INCHIAUX=N/A
PUBMED=N/A
LIBRARYQUALITY=1
111.0436	2
127.03877	2
129.05446	27
147.06258	5
153.01808	4
195.02851	31
219.02865	7
245.0443	4
261.03844	5
263.05442	13
271.05951	4
272.06368	4
273.07507	100
274.07768	5
279.04933	2
281.06483	7
285.07513	17
297.07399	15
305.06525	2
309.0747	2
315.08576	54
316.08812	3
339.08555	48
340.08866	3
351.08556	8
363.08372	4
365.10144	8
369.09627	6
381.09552	17
383.11219	36
384.11529	3
389.08643	2
393.09579	2
399.10625	18
401.12181	17
407.10274	6
413.12229	2
417.11709	31
418.12266	2
419.13284	15
425.11463	5
429.11722	4
435.12745	14
443.13283	3
459.13016	2
461.13239	2
483.12731	2
509.14353	2
527.15382	4
END IONS

BEGIN IONS
PEPMASS=581.1864
CHARGE=1
MSLEVEL=2
FILENAME=PhenolicsDB_Positive.mgf
SCANS=90
SEQ=*..*
IONMODE=Positive
ORGANISM=N/A
NAME=Naringin 40eV
PI=Jessica Cooperstone
DATACOLECTOR=DOI:10.5281/zenodo.8475
SMILES=CC1C(C(C(C(O1)OC2C(C(C(OC2OC3=CC(=C4C(=O)CC(OC4=C3)C5=CC=C(C=C5)O)O)CO)O)O)O)O)O
INCHI=DFPMSGMNTNDNHN-ZPHOTFPESA-N
INCHIAUX=N/A
PUBMED=N/A
LIBRARYQUALITY=1
109.02816	2
111.04347	4
121.06469	2
127.03856	2
129.05406	7
135.04312	3
147.04348	17
153.01793	34
165.01785	21
177.01764	8
179.03369	2
189.01715	3
191.03312	6
195.0283	100
196.03119	3
203.03359	5
205.01307	2
207.02844	4
217.04869	3
219.02812	46
220.0322	2
231.02851	17
233.04369	3
237.03818	2
243.02774	7
245.04352	25
249.03879	3
257.04334	3
261.03878	17
263.05418	22
269.0435	2
273.075	71
274.07769	4
275.05379	2
279.04954	4
281.0635	2
285.0746	18
287.05381	3
297.07386	14
305.06506	3
309.07411	2
311.05356	3
315.08561	4
323.08673	2
329.06387	3
339.08523	12
351.08524	7
363.08313	3
365.10169	5
381.09483	2
END IONS

BEGIN IONS
PEPMASS=355.10233
CHARGE=1
MSLEVEL=2
FILENAME=PhenolicsDB_Positive.mgf
SCANS=91
SEQ=*..*
IONMODE=Positive
ORGANISM=N/A
NAME=Neochlorogenic acid 20eV
PI=Jessica Cooperstone
DATACOLECTOR=DOI:10.5281/zenodo.8475
SMILES=OC1=CC=C(/C=C/C(O[C@@H]2C[C@](C(O)=O)(O)C[C@@H](O)[C@@H]2O)=O)C=C1O
INCHI=CWVRJTMFETXNAD-NXLLHMKUSA-N
INCHIAUX=N/A
PUBMED=N/A
LIBRARYQUALITY=1
135.04407	2
145.02852	7
163.0395	100
163.06895	4
END IONS

BEGIN IONS
PEPMASS=355.10233
CHARGE=1
MSLEVEL=2
FILENAME=PhenolicsDB_Positive.mgf
SCANS=92
SEQ=*..*
IONMODE=Positive
ORGANISM=N/A
NAME=Neochlorogenic acid 40eV
PI=Jessica Cooperstone
DATACOLECTOR=DOI:10.5281/zenodo.8475
SMILES=OC1=CC=C(/C=C/C(O[C@@H]2C[C@](C(O)=O)(O)C[C@@H](O)[C@@H]2O)=O)C=C1O
INCHI=CWVRJTMFETXNAD-NXLLHMKUSA-N
INCHIAUX=N/A
PUBMED=N/A
LIBRARYQUALITY=1
77.03832	7
79.05389	9
83.04891	4
89.03852	52
89.0453	3
107.04911	13
117.03346	74
117.04118	6
135.04417	100
135.05172	6
145.02846	69
145.03686	4
163.0391	93
163.04806	6
END IONS

BEGIN IONS
PEPMASS=597.18134
CHARGE=1
MSLEVEL=2
FILENAME=PhenolicsDB_Positive.mgf
SCANS=93
SEQ=*..*
IONMODE=Positive
ORGANISM=N/A
NAME=Neoeriocitrin 20eV
PI=Jessica Cooperstone
DATACOLECTOR=DOI:10.5281/zenodo.8475
SMILES=CC1C(C(C(C(O1)OC2C(C(C(OC2OC3=CC(=C4C(=O)CC(OC4=C3)C5=CC(=C(C=C5)O)O)O)CO)O)O)O)O)O
INCHI=OBKKEZLIABHSGY-DOYQYKRZSA-N
INCHIAUX=N/A
PUBMED=N/A
LIBRARYQUALITY=1
127.03799	2
129.0542	31
147.06497	5
153.0183	3
163.03803	3
165.01677	2
195.02838	34
219.02766	9
231.02815	2
245.04397	4
261.03796	8
263.05437	15
279.05045	2
281.06422	7
287.0551	2
289.07005	100
290.07332	6
297.06032	4
301.07027	23
305.0644	2
313.07016	19
323.0757	2
325.07134	2
329.06552	2
331.08066	86
332.08355	5
339.07244	3
343.07813	3
347.07523	2
355.08071	58
356.08263	4
363.07131	2
367.08066	9
371.07428	2
373.09184	2
379.0795	5
381.09565	11
385.09099	9
389.0832	3
397.09087	24
398.09467	2
399.10641	48
400.10819	4
407.09715	7
409.09092	2
415.10189	24
416.10384	2
417.11708	21
418.12115	2
423.1072	4
425.10604	4
429.11674	4
433.11179	47
434.11584	3
435.12757	19
439.10046	2
441.11765	4
445.11364	4
451.12237	18
457.1093	2
459.12737	5
465.11744	2
475.12204	4
477.12842	3
483.12593	2
499.12064	2
525.13555	4
543.14912	8
561.15875	2
END IONS

BEGIN IONS
PEPMASS=597.18134
CHARGE=1
MSLEVEL=2
FILENAME=PhenolicsDB_Positive.mgf
SCANS=94
SEQ=*..*
IONMODE=Positive
ORGANISM=N/A
NAME=Neoeriocitrin 40eV
PI=Jessica Cooperstone
DATACOLECTOR=DOI:10.5281/zenodo.8475
SMILES=CC1C(C(C(C(O1)OC2C(C(C(OC2OC3=CC(=C4C(=O)CC(OC4=C3)C5=CC(=C(C=C5)O)O)O)CO)O)O)O)O)O
INCHI=OBKKEZLIABHSGY-DOYQYKRZSA-N
INCHIAUX=N/A
PUBMED=N/A
LIBRARYQUALITY=1
111.04423	4
123.04394	2
127.03939	2
129.05427	7
135.04414	5
153.01787	24
163.03836	25
165.01808	18
177.01763	6
179.03405	3
189.01864	3
191.03303	7
195.02841	100
196.03146	3
203.03318	4
205.0493	2
207.02813	3
217.04739	2
219.02832	46
231.02809	19
233.04337	2
237.04046	2
243.02877	6
245.04406	20
249.03985	2
257.04396	2
261.0386	21
263.05418	21
269.04349	2
271.05925	2
273.03842	3
275.05453	2
279.04816	4
285.03957	3
287.05452	4
289.0698	51
290.07206	3
297.05569	2
301.06978	20
305.06448	4
311.05373	2
313.06973	12
325.06834	2
329.06417	3
331.07966	4
339.08457	2
353.06318	2
355.08069	12
367.08105	9
379.07954	3
381.09621	5
397.09109	2
END IONS

BEGIN IONS
PEPMASS=595.16559
CHARGE=1
MSLEVEL=2
FILENAME=PhenolicsDB_Positive.mgf
SCANS=95
SEQ=*..*
IONMODE=Positive
ORGANISM=N/A
NAME=Nictoflorin 20eV
PI=Jessica Cooperstone
DATACOLECTOR=DOI:10.5281/zenodo.8475
SMILES=CC1C(C(C(C(O1)OCC2C(C(C(C(O2)OC3=C(OC4=CC(=CC(=C4C3=O)O)O)C5=CC=C(C=C5)O)O)O)O)O)O)O
INCHI=RTATXGUCZHCSNG-QHWHWDPRSA-N
INCHIAUX=N/A
PUBMED=N/A
LIBRARYQUALITY=1
129.0543	8
147.0646	2
287.05474	100
288.05793	5
449.10706	2
END IONS

BEGIN IONS
PEPMASS=595.16559
CHARGE=1
MSLEVEL=2
FILENAME=PhenolicsDB_Positive.mgf
SCANS=96
SEQ=*..*
IONMODE=Positive
ORGANISM=N/A
NAME=Nictoflorin 40eV
PI=Jessica Cooperstone
DATACOLECTOR=DOI:10.5281/zenodo.8475
SMILES=CC1C(C(C(C(O1)OCC2C(C(C(C(O2)OC3=C(OC4=CC(=CC(=C4C3=O)O)O)C5=CC=C(C=C5)O)O)O)O)O)O)O
INCHI=RTATXGUCZHCSNG-QHWHWDPRSA-N
INCHIAUX=N/A
PUBMED=N/A
LIBRARYQUALITY=1
129.05442	2
287.05488	100
288.05807	5
END IONS

BEGIN IONS
PEPMASS=165.05453
CHARGE=1
MSLEVEL=2
FILENAME=PhenolicsDB_Positive.mgf
SCANS=151
SEQ=*..*
IONMODE=Positive
ORGANISM=N/A
NAME=p-Coumaric acid 20eV
PI=Jessica Cooperstone
DATACOLECTOR=DOI:10.5281/zenodo.8475
SMILES=C1=CC(=CC=C1C=CC(=O)O)O
INCHI=NGSWKAQJJWESNS-ZZXKWVIFSA-N
INCHIAUX=N/A
PUBMED=N/A
LIBRARYQUALITY=1
119.04895	100
123.04369	2
147.04394	54
END IONS

BEGIN IONS
PEPMASS=165.05453
CHARGE=1
MSLEVEL=2
FILENAME=PhenolicsDB_Positive.mgf
SCANS=152
SEQ=*..*
IONMODE=Positive
ORGANISM=N/A
NAME=p-Coumaric acid 40eV
PI=Jessica Cooperstone
DATACOLECTOR=DOI:10.5281/zenodo.8475
SMILES=C1=CC(=CC=C1C=CC(=O)O)O
INCHI=NGSWKAQJJWESNS-ZZXKWVIFSA-N
INCHIAUX=N/A
PUBMED=N/A
LIBRARYQUALITY=1
101.03819	56
102.04576	6
103.05418	4
118.04096	19
119.04873	100
120.05589	9
147.04364	3
END IONS

BEGIN IONS
PEPMASS=275.09131
CHARGE=1
MSLEVEL=2
FILENAME=PhenolicsDB_Positive.mgf
SCANS=97
SEQ=*..*
IONMODE=Positive
ORGANISM=N/A
NAME=Phloretin 20eV
PI=Jessica Cooperstone
DATACOLECTOR=DOI:10.5281/zenodo.8475
SMILES=C1=CC(=CC=C1CCC(=O)C2=C(C=C(C=C2O)O)O)O
INCHI=VGEREEWJJVICBM-UHFFFAOYSA-N
INCHIAUX=N/A
PUBMED=N/A
LIBRARYQUALITY=1
107.05002	100
151.03874	2
169.04922	14
END IONS

BEGIN IONS
PEPMASS=275.09131
CHARGE=1
MSLEVEL=2
FILENAME=PhenolicsDB_Positive.mgf
SCANS=98
SEQ=*..*
IONMODE=Positive
ORGANISM=N/A
NAME=Phloretin 40eV
PI=Jessica Cooperstone
DATACOLECTOR=DOI:10.5281/zenodo.8475
SMILES=C1=CC(=CC=C1CCC(=O)C2=C(C=C(C=C2O)O)O)O
INCHI=VGEREEWJJVICBM-UHFFFAOYSA-N
INCHIAUX=N/A
PUBMED=N/A
LIBRARYQUALITY=1
107.04899	100
END IONS

BEGIN IONS
PEPMASS=437.1441
CHARGE=1
MSLEVEL=2
FILENAME=PhenolicsDB_Positive.mgf
SCANS=99
SEQ=*..*
IONMODE=Positive
ORGANISM=N/A
NAME=Phloridzin 20eV
PI=Jessica Cooperstone
DATACOLECTOR=DOI:10.5281/zenodo.8475
SMILES=C1=CC(=CC=C1CCC(=O)C2=C(C=C(C=C2OC3C(C(C(C(O3)CO)O)O)O)O)O)O
INCHI=IOUVKUPGCMBWBT-QNDFHXLGSA-N
INCHIAUX=N/A
PUBMED=N/A
LIBRARYQUALITY=1
103.03946	2
107.04909	100
108.05229	2
127.03817	4
139.03848	3
149.05936	6
151.03855	8
169.04895	8
173.05895	2
181.0489	4
191.06927	2
193.04882	9
205.04941	2
207.06415	2
211.05944	16
215.0694	2
235.05944	18
247.0593	4
259.05877	4
275.09065	18
277.06975	5
287.09062	19
295.07995	3
299.0909	13
317.10129	18
341.10096	22
353.10101	28
365.10136	11
383.1112	6
401.12212	3
END IONS

BEGIN IONS
PEPMASS=437.1441
CHARGE=1
MSLEVEL=2
FILENAME=PhenolicsDB_Positive.mgf
SCANS=100
SEQ=*..*
IONMODE=Positive
ORGANISM=N/A
NAME=Phloridzin 40eV
PI=Jessica Cooperstone
DATACOLECTOR=DOI:10.5281/zenodo.8475
SMILES=C1=CC(=CC=C1CCC(=O)C2=C(C=C(C=C2OC3C(C(C(C(O3)CO)O)O)O)O)O)O
INCHI=IOUVKUPGCMBWBT-QNDFHXLGSA-N
INCHIAUX=N/A
PUBMED=N/A
LIBRARYQUALITY=1
107.04892	100
151.0384	2
163.03858	2
169.04894	2
181.04885	5
193.04914	6
205.04876	2
207.06449	2
229.04883	2
235.05924	2
247.05947	4
259.05926	2
END IONS

BEGIN IONS
PEPMASS=577.13458
CHARGE=1
MSLEVEL=2
FILENAME=PhenolicsDB_Positive.mgf
SCANS=103
SEQ=*..*
IONMODE=Positive
ORGANISM=N/A
NAME=Procyanidin A2 20eV
PI=Jessica Cooperstone
DATACOLECTOR=DOI:10.5281/zenodo.8475
SMILES=C1C(C(OC2=C1C(=CC3=C2C4C(C(O3)(OC5=CC(=CC(=C45)O)O)C6=CC(=C(C=C6)O)O)O)O)C7=CC(=C(C=C7)O)O)O
INCHI=NSEWTSAADLNHNH-LSBOWGMISA-N
INCHIAUX=N/A
PUBMED=N/A
LIBRARYQUALITY=1
123.04405	3
287.05484	100
288.05813	4
299.05469	3
419.07579	2
425.08703	47
426.08945	3
437.08666	16
559.12305	2
END IONS

BEGIN IONS
PEPMASS=577.13458
CHARGE=1
MSLEVEL=2
FILENAME=PhenolicsDB_Positive.mgf
SCANS=104
SEQ=*..*
IONMODE=Positive
ORGANISM=N/A
NAME=Procyanidin A2 40eV
PI=Jessica Cooperstone
DATACOLECTOR=DOI:10.5281/zenodo.8475
SMILES=C1C(C(OC2=C1C(=CC3=C2C4C(C(O3)(OC5=CC(=CC(=C45)O)O)C6=CC(=C(C=C6)O)O)O)O)C7=CC(=C(C=C7)O)O)O
INCHI=NSEWTSAADLNHNH-LSBOWGMISA-N
INCHIAUX=N/A
PUBMED=N/A
LIBRARYQUALITY=1
123.04397	5
271.05961	2
287.05469	100
288.05758	4
299.05414	3
419.07523	2
END IONS

BEGIN IONS
PEPMASS=579.15021
CHARGE=1
MSLEVEL=2
FILENAME=PhenolicsDB_Positive.mgf
SCANS=105
SEQ=*..*
IONMODE=Positive
ORGANISM=N/A
NAME=Procyanidin B1 20eV
PI=Jessica Cooperstone
DATACOLECTOR=DOI:10.5281/zenodo.8475
SMILES=C1C(C(OC2=C1C(=CC(=C2C3C(C(OC4=CC(=CC(=C34)O)O)C5=CC(=C(C=C5)O)O)O)O)O)C6=CC(=C(C=C6)O)O)O
INCHI=XFZJEEAOWLFHDH-UKWJTHFESA-N
INCHIAUX=N/A
PUBMED=N/A
LIBRARYQUALITY=1
123.04401	13
127.03884	100
128.04188	2
135.04395	3
139.03894	25
151.0388	5
163.03883	26
165.05424	5
167.03364	4
233.04379	2
243.06482	2
247.05976	20
257.04407	2
259.05954	10
271.05988	32
273.07493	2
275.05482	32
283.05934	5
287.05463	21
289.07045	52
290.07335	2
291.08624	38
292.08909	2
299.05434	4
301.07028	24
303.08573	4
409.09175	53
410.09463	3
411.10701	7
421.09064	3
427.10187	25
439.10151	3
579.14873	5
END IONS

BEGIN IONS
PEPMASS=579.15021
CHARGE=1
MSLEVEL=2
FILENAME=PhenolicsDB_Positive.mgf
SCANS=106
SEQ=*..*
IONMODE=Positive
ORGANISM=N/A
NAME=Procyanidin B1 40eV
PI=Jessica Cooperstone
DATACOLECTOR=DOI:10.5281/zenodo.8475
SMILES=C1C(C(OC2=C1C(=CC(=C2C3C(C(OC4=CC(=CC(=C34)O)O)C5=CC(=C(C=C5)O)O)O)O)O)C6=CC(=C(C=C6)O)O)O
INCHI=XFZJEEAOWLFHDH-UKWJTHFESA-N
INCHIAUX=N/A
PUBMED=N/A
LIBRARYQUALITY=1
123.04413	24
127.03877	100
128.04227	2
135.04392	17
137.02282	2
139.03884	40
147.04342	3
149.02284	3
151.03869	7
159.04345	2
161.05928	3
163.0387	37
165.05415	4
167.03354	6
177.05389	3
179.03335	2
187.03847	6
191.03339	8
197.059	2
201.05399	4
203.0332	4
203.06866	3
205.0489	4
207.06458	2
215.06929	2
229.04892	5
233.04394	11
243.06451	8
245.04394	6
247.05945	10
257.04376	12
259.05936	6
269.04359	3
271.05952	16
275.05431	6
283.05951	7
287.05464	21
299.05431	3
409.09092	4
END IONS

BEGIN IONS
PEPMASS=579.15021
CHARGE=1
MSLEVEL=2
FILENAME=PhenolicsDB_Positive.mgf
SCANS=107
SEQ=*..*
IONMODE=Positive
ORGANISM=N/A
NAME=Procyanidin B2 20eV
PI=Jessica Cooperstone
DATACOLECTOR=DOI:10.5281/zenodo.8475
SMILES=C1C(C(OC2=C1C(=CC(=C2C3C(C(OC4=CC(=CC(=C34)O)O)C5=CC(=C(C=C5)O)O)O)O)O)C6=CC(=C(C=C6)O)O)O
INCHI=XFZJEEAOWLFHDH-NFJBMHMQSA-N
INCHIAUX=N/A
PUBMED=N/A
LIBRARYQUALITY=1
123.04407	21
127.03911	100
128.0422	2
135.04351	4
139.03892	38
151.03845	6
163.0387	31
165.05441	7
167.03348	5
179.0336	2
233.04396	3
243.06418	2
247.05988	31
257.04385	2
259.05962	15
271.05975	38
272.06209	2
273.07516	3
275.05479	47
276.05832	2
283.05943	8
287.05493	35
289.07043	56
290.0734	3
291.0859	56
292.0896	2
299.05448	6
301.07041	43
302.07446	2
303.08598	7
409.09158	75
410.0938	5
411.10664	11
421.09127	4
427.102	43
428.10551	3
435.10639	3
439.10231	5
453.11646	3
579.14813	7
579.2233	2
END IONS

BEGIN IONS
PEPMASS=579.15021
CHARGE=1
MSLEVEL=2
FILENAME=PhenolicsDB_Positive.mgf
SCANS=108
SEQ=*..*
IONMODE=Positive
ORGANISM=N/A
NAME=Procyanidin B2 40eV
PI=Jessica Cooperstone
DATACOLECTOR=DOI:10.5281/zenodo.8475
SMILES=C1C(C(OC2=C1C(=CC(=C2C3C(C(OC4=CC(=CC(=C34)O)O)C5=CC(=C(C=C5)O)O)O)O)O)C6=CC(=C(C=C6)O)O)O
INCHI=XFZJEEAOWLFHDH-NFJBMHMQSA-N
INCHIAUX=N/A
PUBMED=N/A
LIBRARYQUALITY=1
111.00749	2
123.04402	37
127.03924	100
128.04186	2
135.04383	21
137.02296	2
139.03893	56
147.04397	5
149.02307	4
151.03874	8
159.04401	3
161.05967	4
163.03886	43
164.04296	2
165.05438	6
167.03351	7
175.03836	3
177.05444	3
179.03358	4
187.03872	7
189.05451	2
191.03345	12
197.05885	2
201.05393	5
203.0334	7
203.06934	3
205.04928	5
207.06543	2
215.06944	3
225.05389	2
229.04883	6
231.0642	2
233.04387	17
243.06421	9
245.04404	9
247.05951	14
253.04913	2
255.06443	2
257.04397	17
259.05951	9
269.04354	5
271.05946	19
273.07472	2
275.05422	10
283.05912	10
287.05467	33
299.05416	6
301.07075	2
409.09082	7
END IONS

BEGIN IONS
PEPMASS=579.15021
CHARGE=1
MSLEVEL=2
FILENAME=PhenolicsDB_Positive.mgf
SCANS=109
SEQ=*..*
IONMODE=Positive
ORGANISM=N/A
NAME=Procyanidin B3 20eV
PI=Jessica Cooperstone
DATACOLECTOR=DOI:10.5281/zenodo.8475
SMILES=C1C(C(OC2=C1C(=CC(=C2C3C(C(OC4=CC(=CC(=C34)O)O)C5=CC(=C(C=C5)O)O)O)O)O)C6=CC(=C(C=C6)O)O)O
INCHI=XFZJEEAOWLFHDH-AVFWISQGSA-N
INCHIAUX=N/A
PUBMED=N/A
LIBRARYQUALITY=1
123.04405	29
127.03925	93
128.04198	2
135.04389	3
139.03897	45
147.04388	2
151.03884	9
163.03883	30
165.05427	9
167.03373	4
179.03349	2
233.04391	3
247.05983	47
248.06331	2
257.0438	3
259.05971	21
271.05964	35
272.06291	2
273.0751	4
275.05469	52
276.05786	2
283.05955	10
285.07507	3
287.05458	41
288.05796	2
289.07052	59
290.07358	2
291.08597	55
292.08963	2
299.05438	8
301.07048	60
302.07362	3
303.08548	13
313.06884	2
315.08534	2
333.09641	3
409.09166	100
410.09455	6
411.1061	8
421.09077	6
427.10179	50
428.10478	2
435.10694	6
439.10154	8
453.11688	6
561.13709	2
579.1489	7
END IONS

BEGIN IONS
PEPMASS=579.15021
CHARGE=1
MSLEVEL=2
FILENAME=PhenolicsDB_Positive.mgf
SCANS=110
SEQ=*..*
IONMODE=Positive
ORGANISM=N/A
NAME=Procyanidin B3 40eV
PI=Jessica Cooperstone
DATACOLECTOR=DOI:10.5281/zenodo.8475
SMILES=C1C(C(OC2=C1C(=CC(=C2C3C(C(OC4=CC(=CC(=C34)O)O)C5=CC(=C(C=C5)O)O)O)O)O)C6=CC(=C(C=C6)O)O)O
INCHI=XFZJEEAOWLFHDH-AVFWISQGSA-N
INCHIAUX=N/A
PUBMED=N/A
LIBRARYQUALITY=1
111.00745	2
123.04414	51
127.03875	100
128.04211	2
135.04368	19
137.02299	4
139.03876	76
140.04197	2
147.04356	8
149.02288	5
151.03862	15
159.04368	2
161.05922	4
163.03881	44
165.054	7
167.0336	5
175.03842	3
177.05396	4
179.03323	5
181.05064	2
187.03826	6
189.0541	2
191.03346	14
197.05897	2
201.05384	5
203.03321	8
203.06859	3
205.04911	5
207.06452	3
215.06933	3
217.04898	2
229.04892	7
231.06488	2
233.04388	21
241.04919	2
243.06432	8
245.04381	15
247.05945	26
253.04826	2
255.06421	3
257.04381	24
258.04952	2
259.05936	12
269.0437	6
271.0593	21
273.07464	3
275.05423	12
283.05911	14
287.05465	44
288.05734	2
299.05438	7
301.06988	3
391.07927	2
409.09081	12
END IONS

BEGIN IONS
PEPMASS=867.21362
CHARGE=1
MSLEVEL=2
FILENAME=PhenolicsDB_Positive.mgf
SCANS=111
SEQ=*..*
IONMODE=Positive
ORGANISM=N/A
NAME=Procyanidin C1 20eV
PI=Jessica Cooperstone
DATACOLECTOR=DOI:10.5281/zenodo.8475
SMILES=C1C(C(OC2=C1C(=CC(=C2C3C(C(OC4=C(C(=CC(=C34)O)O)C5C(C(OC6=CC(=CC(=C56)O)O)C7=CC(=C(C=C7)O)O)O)C8=CC(=C(C=C8)O)O)O)O)O)C9=CC(=C(C=C9)O)O)O
INCHI=MOJZMWJRUKIQGL-XILRTYJMSA-N
INCHIAUX=N/A
PUBMED=N/A
LIBRARYQUALITY=1
123.04406	5
127.03889	12
135.04362	2
139.03882	6
151.03865	3
163.0387	8
245.04425	6
247.05966	40
248.063	2
259.06031	2
271.05924	10
275.05449	7
283.05925	2
287.05476	5
289.07025	48
290.07332	2
291.08585	27
301.07089	11
303.08457	2
313.06936	2
331.08082	4
383.07508	3
397.09089	19
398.09471	2
407.07561	22
408.07987	2
409.091	24
411.1059	6
419.07652	2
421.09163	3
425.08597	41
426.08984	3
427.10164	24
433.09146	3
437.08646	16
439.10215	5
449.0859	4
451.10189	14
453.1177	4
517.11201	8
535.12295	16
536.12624	2
541.11114	3
545.10692	6
559.12249	28
560.1266	3
561.13849	4
571.1225	3
577.13351	100
578.13737	10
579.14937	89
580.15203	10
589.13264	4
591.14857	3
621.15939	4
679.14285	3
697.15352	19
698.15705	3
699.16879	7
715.164	30
716.16756	4
741.17952	4
849.20062	2
867.2122	69
868.21437	12
END IONS

BEGIN IONS
PEPMASS=867.21362
CHARGE=1
MSLEVEL=2
FILENAME=PhenolicsDB_Positive.mgf
SCANS=112
SEQ=*..*
IONMODE=Positive
ORGANISM=N/A
NAME=Procyanidin C1 40eV
PI=Jessica Cooperstone
DATACOLECTOR=DOI:10.5281/zenodo.8475
SMILES=C1C(C(OC2=C1C(=CC(=C2C3C(C(OC4=C(C(=CC(=C34)O)O)C5C(C(OC6=CC(=CC(=C56)O)O)C7=CC(=C(C=C7)O)O)O)C8=CC(=C(C=C8)O)O)O)O)O)C9=CC(=C(C=C9)O)O)O
INCHI=MOJZMWJRUKIQGL-XILRTYJMSA-N
INCHIAUX=N/A
PUBMED=N/A
LIBRARYQUALITY=1
123.04378	38
127.03882	100
128.04251	2
135.04351	20
139.03857	46
151.0389	13
163.0385	63
164.04217	2
165.05388	6
167.03341	6
169.04935	7
179.03341	5
187.03836	2
191.03127	2
201.05466	2
203.03282	3
205.04874	4
229.04964	3
233.04286	2
243.0646	4
245.04392	64
246.04754	2
247.05938	90
248.06312	4
257.04405	6
259.05948	16
261.07469	7
263.05346	6
269.04365	3
271.05945	48
272.06185	3
273.0722	3
274.04649	6
275.05431	56
276.05647	3
283.05937	18
285.03878	2
285.07295	2
287.05387	41
288.0582	3
289.06981	45
290.07225	2
291.08561	21
295.0577	2
299.05418	9
301.0698	29
302.07386	2
303.0488	4
303.08503	6
311.05346	3
313.06896	4
317.0647	2
323.05368	2
331.08017	3
341.06461	3
365.06464	6
367.08166	2
379.0808	4
383.07523	11
389.06383	3
391.07968	5
393.06023	13
395.07573	7
396.08236	3
397.0904	9
405.06296	4
407.07524	66
408.07829	5
409.09062	55
410.094	5
411.10625	8
419.07467	15
421.09042	7
423.08021	2
425.08521	13
427.10089	12
431.07517	3
433.09092	6
435.09629	3
437.08576	16
439.10039	4
449.08549	6
451.09976	7
517.11058	7
527.0954	15
528.09959	2
529.11317	2
535.12204	2
541.11138	3
545.10673	18
546.10813	2
557.10466	4
571.12118	3
679.14436	4
697.15263	5
END IONS

BEGIN IONS
PEPMASS=595.14508
CHARGE=1
MSLEVEL=2
FILENAME=PhenolicsDB_Positive.mgf
SCANS=101
SEQ=*..*
IONMODE=Positive
ORGANISM=N/A
NAME=Procyanidin 20eV
PI=Jessica Cooperstone
DATACOLECTOR=DOI:10.5281/zenodo.8475
SMILES=C1C(C(OC2=CC(=CC(=C21)O)O)C3=CC(=C(C=C3)O)O)OC4(C(C(C5=C(C=C(C=C5O4)O)O)O)O)C6=CC(=C(C=C6)O)O
INCHI=HGVVOUNEGQIPMS-UHFFFAOYSA-N
INCHIAUX=N/A
PUBMED=N/A
LIBRARYQUALITY=1
103.0382	54
121.44242	3
122.05283	15
123.04292	34
127.04047	37
136.04372	3
144.06453	26
144.08934	3
145.05561	38
146.05298	50
150.29053	5
157.10539	49
157.13023	13
160.98657	17
163.03225	13
163.0614	65
163.60358	6
164.06197	31
164.50252	3
164.89846	5
165.04991	4
167.07565	15
188.06386	47
188.11157	3
189.17851	19
189.20421	5
191.03257	25
206.08837	14
217.19579	6
223.05653	10
245.09981	31
247.09552	36
248.10185	10
259.05647	32
259.10693	2
266.1135	9
271.08202	28
273.06554	17
287.05323	8
287.77931	4
287.81084	6
289.08009	62
289.12716	4
290.02192	48
290.08951	28
291.10151	16
300.03544	36
301.07764	30
301.60939	4
307.102	65
308.10056	50
308.16404	2
308.28353	2
309.30973	3
318.06223	8
328.99976	10
329.03716	2
332.11498	11
349.09145	15
357.02475	9
361.12483	5
369.03368	27
373.52214	28
373.5603	3
380.03709	49
380.12521	2
380.82012	5
381.9856	8
385.9612	4
389.06226	4
391.11521	23
391.92183	2
395.08478	23
403.1138	13
407.07711	13
425.09075	50
425.31139	5
426.67524	8
427.0884	7
427.15355	17
428.15833	32
435.0547	52
435.13205	2
442.24411	5
443.05304	42
443.13047	2
450.0378	8
451.08976	8
452.43813	2
454.08231	28
455.56935	16
457.10769	8
457.83263	2
465.49174	3
473.02942	11
479.02484	9
489.04064	12
497.32932	23
498.05866	21
498.1054	2
503.20625	3
510.08193	40
511.07064	23
512.87132	7
514.02242	11
516.30714	19
516.56375	2
516.8834	3
519.06652	12
520.01167	8
520.0322	4
520.08545	25
541.10973	13
558.95685	5
559.12144	17
559.4617	8
567.02549	17
569.03135	10
575.104	11
577.13419	23
577.71453	3
577.94824	4
579.06977	8
595.02631	4
595.14149	17
595.24548	100
595.84451	4
596.13316	4
597.04674	24
599.03885	14
615.02832	5
637.06969	30
676.05692	16
707.08248	3
750.01339	15
763.03994	18
773.04506	4
780.07805	8
867.05121	6
884.46447	7
900.12785	12
927.11428	11
1089.49145	5
1519.09593	3
END IONS

BEGIN IONS
PEPMASS=595.14508
CHARGE=1
MSLEVEL=2
FILENAME=PhenolicsDB_Positive.mgf
SCANS=102
SEQ=*..*
IONMODE=Positive
ORGANISM=N/A
NAME=Procyanidin 40eV
PI=Jessica Cooperstone
DATACOLECTOR=DOI:10.5281/zenodo.8475
SMILES=C1C(C(OC2=CC(=CC(=C21)O)O)C3=CC(=C(C=C3)O)O)OC4(C(C(C5=C(C=C(C=C5O4)O)O)O)O)C6=CC(=C(C=C6)O)O
INCHI=HGVVOUNEGQIPMS-UHFFFAOYSA-N
INCHIAUX=N/A
PUBMED=N/A
LIBRARYQUALITY=1
100.04479	10
103.03642	59
103.07164	3
104.0387	22
109.02975	33
115.03626	16
117.07713	12
120.07823	21
121.36841	5
123.04158	100
123.08054	6
123.09222	2
127.03714	42
133.04636	8
135.03984	16
135.56979	4
137.02209	32
138.02751	21
139.04318	16
145.04737	42
145.09694	28
146.04961	18
147.97771	23
149.04893	31
151.03248	11
152.22544	3
152.30108	4
161.06079	21
163.03804	19
163.47321	7
165.05383	9
184.06899	6
187.41736	4
189.34155	5
195.74229	6
210.04393	12
211.3881	3
214.00645	16
214.02385	4
216.04289	3
220.02679	18
221.04337	20
235.05816	8
243.06258	14
257.01105	9
257.04687	12
263.04972	10
264.95137	19
271.05797	28
278.14323	33
287.05747	80
287.24187	2
288.05834	24
288.87156	12
289.05306	5
289.16622	15
295.05618	27
303.04565	14
309.07766	12
313.02155	38
313.12591	17
315.5365	4
316.02943	29
319.05403	40
324.1249	4
325.0489	18
331.08626	5
340.98716	21
342.02477	53
342.10624	4
347.07273	47
347.1396	2
354.03674	30
363.08515	20
367.01024	15
373.06925	27
373.11682	3
375.99205	5
376.98613	19
377.09195	24
377.13439	3
391.07414	5
392.41739	5
392.92387	32
401.01804	3
403.54644	7
414.99742	4
421.07786	3
422.14758	4
425.11877	37
427.0062	22
427.07046	2
428.01639	34
428.10594	2
429.02329	38
429.11695	3
434.99357	29
435.04191	13
435.09916	2
457.01686	19
473.09917	2
479.00979	5
482.18247	12
484.9812	10
489.04256	16
491.37425	6
492.07443	5
496.24132	19
513.08977	38
513.14164	5
539.09615	8
560.13352	10
595.15724	6
595.22856	7
633.00404	3
655.35822	9
806.00958	11
831.42162	6
861.80899	8
END IONS

BEGIN IONS
PEPMASS=627.15552
CHARGE=1
MSLEVEL=2
FILENAME=PhenolicsDB_Positive.mgf
SCANS=114
SEQ=*..*
IONMODE=Positive
ORGANISM=N/A
NAME=Quercetin 3-O-sophoroside 20eV
PI=Jessica Cooperstone
DATACOLECTOR=DOI:10.5281/zenodo.8475
SMILES=C1=CC(=C(C=C1C2=C(C(=O)C3=C(C=C(C=C3O2)O)O)OC4C(C(C(C(O4)CO)O)O)OC5C(C(C(C(O5)CO)O)O)O)O)O
INCHI=RDUAJIJVNHKTQC-IROKYFGSSA-N
INCHIAUX=N/A
PUBMED=N/A
LIBRARYQUALITY=1
127.03868	3
145.0491	6
303.04984	100
304.05266	5
345.05946	6
369.05946	2
447.09031	3
465.10167	9
END IONS

BEGIN IONS
PEPMASS=627.15552
CHARGE=1
MSLEVEL=2
FILENAME=PhenolicsDB_Positive.mgf
SCANS=115
SEQ=*..*
IONMODE=Positive
ORGANISM=N/A
NAME=Quercetin 3-O-sophoroside 40eV
PI=Jessica Cooperstone
DATACOLECTOR=DOI:10.5281/zenodo.8475
SMILES=C1=CC(=C(C=C1C2=C(C(=O)C3=C(C=C(C=C3O2)O)O)OC4C(C(C(C(O4)CO)O)O)OC5C(C(C(C(O5)CO)O)O)O)O)O
INCHI=RDUAJIJVNHKTQC-IROKYFGSSA-N
INCHIAUX=N/A
PUBMED=N/A
LIBRARYQUALITY=1
109.02818	2
127.03831	4
145.04868	2
303.04973	100
304.05231	5
315.0487	4
345.0595	9
369.05945	3
END IONS

BEGIN IONS
PEPMASS=303.0498
CHARGE=1
MSLEVEL=2
FILENAME=PhenolicsDB_Positive.mgf
SCANS=113
SEQ=*..*
IONMODE=Positive
ORGANISM=N/A
NAME=Quercetin 40eV
PI=Jessica Cooperstone
DATACOLECTOR=DOI:10.5281/zenodo.8475
SMILES=C1=CC(=C(C=C1C2=C(C(=O)C3=C(C=C(C=C3O2)O)O)O)O)O
INCHI=REFJWTPEDVJJIY-UHFFFAOYSA-N
INCHIAUX=N/A
PUBMED=N/A
LIBRARYQUALITY=1
103.05379	2
105.03324	4
105.06977	2
107.01236	2
107.04873	3
109.02837	20
111.00732	9
115.054	4
117.0697	6
121.02826	16
123.04371	7
127.05381	10
128.06145	2
131.04887	5
133.02797	2
135.04353	5
137.02331	49
143.04868	2
145.02779	3
145.06429	8
149.02282	3
153.01793	100
155.04875	19
157.06455	2
159.04372	3
161.05924	6
163.03852	8
165.01782	20
166.02532	3
173.05921	17
177.01759	2
177.05337	2
179.03322	5
183.04365	16
184.05129	2
187.03848	9
191.03339	2
195.02865	2
200.04634	2
201.05435	33
203.03304	2
205.04838	2
211.03836	5
217.04871	2
219.0644	2
228.0413	7
229.04939	54
232.03537	2
239.03325	4
245.04398	2
247.05935	3
257.04377	16
274.0463	5
285.03879	7
303.04926	14
END IONS

BEGIN IONS
PEPMASS=465.10266
CHARGE=1
MSLEVEL=2
FILENAME=PhenolicsDB_Positive.mgf
SCANS=118
SEQ=*..*
IONMODE=Positive
ORGANISM=N/A
NAME=Quercetin-3-galactoside 40eV
PI=Jessica Cooperstone
DATACOLECTOR=DOI:10.5281/zenodo.8475
SMILES=C1=CC(=C(C=C1C2=C(C(=O)C3=C(C=C(C=C3O2)O)O)OC4C(C(C(C(O4)CO)O)O)O)O)O
INCHI=OVSQVDMCBVZWGM-DTGCRPNFSA-N
INCHIAUX=N/A
PUBMED=N/A
LIBRARYQUALITY=1
137.02321	2
153.01822	3
165.01827	3
229.04941	3
257.04419	3
285.03912	2
303.05027	100
304.05316	3
END IONS

BEGIN IONS
PEPMASS=465.10266
CHARGE=1
MSLEVEL=2
FILENAME=PhenolicsDB_Positive.mgf
SCANS=119
SEQ=*..*
IONMODE=Positive
ORGANISM=N/A
NAME=Quercetin-3-glucoside 20eV
PI=Jessica Cooperstone
DATACOLECTOR=DOI:10.5281/zenodo.8475
SMILES=C1=CC(=C(C=C1C2=C(C(=O)C3=C(C=C(C=C3O2)O)O)OC4C(C(C(C(O4)CO)O)O)O)O)[O-]
INCHI=OVSQVDMCBVZWGM-QSOFNFLRSA-M
INCHIAUX=N/A
PUBMED=N/A
LIBRARYQUALITY=1
127.03887	2
145.04937	2
303.05051	100
304.0532	3
END IONS

BEGIN IONS
PEPMASS=465.10266
CHARGE=1
MSLEVEL=2
FILENAME=PhenolicsDB_Positive.mgf
SCANS=120
SEQ=*..*
IONMODE=Positive
ORGANISM=N/A
NAME=Quercetin-3-glucoside 40eV
PI=Jessica Cooperstone
DATACOLECTOR=DOI:10.5281/zenodo.8475
SMILES=C1=CC(=C(C=C1C2=C(C(=O)C3=C(C=C(C=C3O2)O)O)OC4C(C(C(C(O4)CO)O)O)O)O)[O-]
INCHI=OVSQVDMCBVZWGM-QSOFNFLRSA-M
INCHIAUX=N/A
PUBMED=N/A
LIBRARYQUALITY=1
109.02827	2
137.02299	3
153.01793	3
165.01795	3
229.04899	4
257.04394	3
285.03848	2
303.04978	100
304.05291	4
END IONS

BEGIN IONS
PEPMASS=479.08194
CHARGE=1
MSLEVEL=2
FILENAME=PhenolicsDB_Positive.mgf
SCANS=116
SEQ=*..*
IONMODE=Positive
ORGANISM=N/A
NAME=Quercetin-3-O-glucuronide 20eV
PI=Jessica Cooperstone
DATACOLECTOR=DOI:10.5281/zenodo.8475
SMILES=C1=CC(=C(C=C1C2=C(C(=O)C3=C(C=C(C=C3O2)O)O)OC4C(C(C(C(O4)C(=O)O)O)O)O)O)O
INCHI=DUBCCGAQYVUYEU-ZUGPOPFOSA-N
INCHIAUX=N/A
PUBMED=N/A
LIBRARYQUALITY=1
113.02361	4
159.02874	2
303.05068	100
304.05325	3
END IONS

BEGIN IONS
PEPMASS=479.08194
CHARGE=1
MSLEVEL=2
FILENAME=PhenolicsDB_Positive.mgf
SCANS=117
SEQ=*..*
IONMODE=Positive
ORGANISM=N/A
NAME=Quercetin-3-O-glucuronide 40eV
PI=Jessica Cooperstone
DATACOLECTOR=DOI:10.5281/zenodo.8475
SMILES=C1=CC(=C(C=C1C2=C(C(=O)C3=C(C=C(C=C3O2)O)O)OC4C(C(C(C(O4)C(=O)O)O)O)O)O)O
INCHI=DUBCCGAQYVUYEU-ZUGPOPFOSA-N
INCHIAUX=N/A
PUBMED=N/A
LIBRARYQUALITY=1
113.0236	6
137.0232	2
153.01808	2
165.01802	3
229.04929	3
257.04394	3
285.03891	2
303.05044	100
304.05298	3
END IONS

BEGIN IONS
PEPMASS=449.10776
CHARGE=1
MSLEVEL=2
FILENAME=PhenolicsDB_Positive.mgf
SCANS=121
SEQ=*..*
IONMODE=Positive
ORGANISM=N/A
NAME=Quercitrin 20eV
PI=Jessica Cooperstone
DATACOLECTOR=DOI:10.5281/zenodo.8475
SMILES=CC1C(C(C(C(O1)OC2=C(OC3=CC(=CC(=C3C2=O)O)O)C4=CC(=C(C=C4)O)O)O)O)O
INCHI=OXGUCUVFOIWWQJ-HQBVPOQASA-N
INCHIAUX=N/A
PUBMED=N/A
LIBRARYQUALITY=1
129.05465	8
303.04956	100
304.05247	3
END IONS

BEGIN IONS
PEPMASS=449.10776
CHARGE=1
MSLEVEL=2
FILENAME=PhenolicsDB_Positive.mgf
SCANS=122
SEQ=*..*
IONMODE=Positive
ORGANISM=N/A
NAME=Quercitrin 40eV
PI=Jessica Cooperstone
DATACOLECTOR=DOI:10.5281/zenodo.8475
SMILES=CC1C(C(C(C(O1)OC2=C(OC3=CC(=CC(=C3C2=O)O)O)C4=CC(=C(C=C4)O)O)O)O)O
INCHI=OXGUCUVFOIWWQJ-HQBVPOQASA-N
INCHIAUX=N/A
PUBMED=N/A
LIBRARYQUALITY=1
137.02301	3
153.01771	3
165.01776	3
229.04874	4
257.04363	3
285.03879	2
303.04961	100
304.05249	3
END IONS

BEGIN IONS
PEPMASS=193.07059
CHARGE=1
MSLEVEL=2
FILENAME=PhenolicsDB_Positive.mgf
SCANS=123
SEQ=*..*
IONMODE=Positive
ORGANISM=N/A
NAME=Quinic acid 20eV
PI=Jessica Cooperstone
DATACOLECTOR=DOI:10.5281/zenodo.8475
SMILES=C1C(C(C(CC1(C(=O)O)O)O)O)O
INCHI=AAWZDTNXLSGCEK-LNVDRNJUSA-N
INCHIAUX=N/A
PUBMED=N/A
LIBRARYQUALITY=1
101.05999	5
111.04408	100
121.0281	15
129.0541	14
139.03851	13
147.06437	2
END IONS

BEGIN IONS
PEPMASS=193.07059
CHARGE=1
MSLEVEL=2
FILENAME=PhenolicsDB_Positive.mgf
SCANS=124
SEQ=*..*
IONMODE=Positive
ORGANISM=N/A
NAME=Quinic acid 40eV
PI=Jessica Cooperstone
DATACOLECTOR=DOI:10.5281/zenodo.8475
SMILES=C1C(C(C(CC1(C(=O)O)O)O)O)O
INCHI=AAWZDTNXLSGCEK-LNVDRNJUSA-N
INCHIAUX=N/A
PUBMED=N/A
LIBRARYQUALITY=1
101.06284	2
103.05389	12
104.05626	7
105.06971	35
105.409	2
106.07374	66
107.04943	29
110.03267	4
111.04465	100
111.40091	2
111.50552	2
113.02505	2
113.05724	4
115.03655	2
115.43413	2
118.24574	2
119.04094	6
121.0281	32
126.55144	2
134.06797	3
135.0416	3
136.08508	3
140.47667	2
144.71341	2
195.20174	3
242.54527	2
259.9084	3
265.6073	2
270.72416	2
321.21624	2
329.49499	2
367.42772	2
373.72298	2
377.79469	2
419.85841	2
429.49644	3
479.1235	2
512.17912	2
522.78738	3
543.42986	2
804.411	3
824.62652	2
891.6983	2
898.56664	2
947.46321	4
1016.84509	2
1111.74326	2
1307.90528	2
1325.5753	2
1423.75632	2
1487.97588	2
1501.60687	2
1576.04347	7
1588.86739	2
1637.0648	2
1637.34356	4
END IONS

BEGIN IONS
PEPMASS=611.16058
CHARGE=1
MSLEVEL=2
FILENAME=PhenolicsDB_Positive.mgf
SCANS=125
SEQ=*..*
IONMODE=Positive
ORGANISM=N/A
NAME=Rutin 20eV
PI=Jessica Cooperstone
DATACOLECTOR=DOI:10.5281/zenodo.8475
SMILES=CC1C(C(C(C(O1)OCC2C(C(C(C(O2)OC3=C(OC4=CC(=CC(=C4C3=O)O)O)C5=CC(=C(C=C5)O)O)O)O)O)O)O)O
INCHI=IKGXIBQEEMLURG-NVPNHPEKSA-N
INCHIAUX=N/A
PUBMED=N/A
LIBRARYQUALITY=1
129.05457	7
147.06489	2
303.04993	100
304.05302	5
465.10205	3
END IONS

BEGIN IONS
PEPMASS=611.16058
CHARGE=1
MSLEVEL=2
FILENAME=PhenolicsDB_Positive.mgf
SCANS=126
SEQ=*..*
IONMODE=Positive
ORGANISM=N/A
NAME=Rutin 40eV
PI=Jessica Cooperstone
DATACOLECTOR=DOI:10.5281/zenodo.8475
SMILES=CC1C(C(C(C(O1)OCC2C(C(C(C(O2)OC3=C(OC4=CC(=CC(=C4C3=O)O)O)C5=CC(=C(C=C5)O)O)O)O)O)O)O)O
INCHI=IKGXIBQEEMLURG-NVPNHPEKSA-N
INCHIAUX=N/A
PUBMED=N/A
LIBRARYQUALITY=1
129.05449	2
303.04972	100
304.05287	5
END IONS

BEGIN IONS
PEPMASS=139.03889
CHARGE=1
MSLEVEL=2
FILENAME=PhenolicsDB_Positive.mgf
SCANS=127
SEQ=*..*
IONMODE=Positive
ORGANISM=N/A
NAME=Salicylic acid 20eV
PI=Jessica Cooperstone
DATACOLECTOR=DOI:10.5281/zenodo.8475
SMILES=C1=CC=C(C(=C1)C(=O)O)O
INCHI=YGSDEFSMJLZEOE-UHFFFAOYSA-N
INCHIAUX=N/A
PUBMED=N/A
LIBRARYQUALITY=1
121.02882	100
END IONS

BEGIN IONS
PEPMASS=139.03889
CHARGE=1
MSLEVEL=2
FILENAME=PhenolicsDB_Positive.mgf
SCANS=128
SEQ=*..*
IONMODE=Positive
ORGANISM=N/A
NAME=Salicylic acid 40eV
PI=Jessica Cooperstone
DATACOLECTOR=DOI:10.5281/zenodo.8475
SMILES=C1=CC=C(C(=C1)C(=O)O)O
INCHI=YGSDEFSMJLZEOE-UHFFFAOYSA-N
INCHIAUX=N/A
PUBMED=N/A
LIBRARYQUALITY=1
121.02802	100
134.89352	2
561.76362	2
1180.68102	4
1561.87218	3
END IONS

BEGIN IONS
PEPMASS=595.16571
CHARGE=1
MSLEVEL=2
FILENAME=PhenolicsDB_Positive.mgf
SCANS=129
SEQ=*..*
IONMODE=Positive
ORGANISM=N/A
NAME=Saponarin 20eV
PI=Jessica Cooperstone
DATACOLECTOR=DOI:10.5281/zenodo.8475
SMILES=OC1=C2C(OC(C3=CC=C(C=C3)O)=CC2=O)=CC(O[C@@H]4O[C@@H]([C@H]([C@@H]([C@H]4O)O)O)CO)=C1[C@]5([H])O[C@@H]([C@H]([C@@H]([C@H]5O)O)O)CO
INCHI=HGUVPEBGCAVWID-KETMJRJWSA-N
INCHIAUX=N/A
PUBMED=N/A
LIBRARYQUALITY=1
311.05572	2
312.05836	2
432.10031	2
433.10254	4
595.15711	100
596.15837	5
END IONS

BEGIN IONS
PEPMASS=595.16571
CHARGE=1
MSLEVEL=2
FILENAME=PhenolicsDB_Positive.mgf
SCANS=130
SEQ=*..*
IONMODE=Positive
ORGANISM=N/A
NAME=Saponarin 40eV
PI=Jessica Cooperstone
DATACOLECTOR=DOI:10.5281/zenodo.8475
SMILES=OC1=C2C(OC(C3=CC=C(C=C3)O)=CC2=O)=CC(O[C@@H]4O[C@@H]([C@H]([C@@H]([C@H]4O)O)O)CO)=C1[C@]5([H])O[C@@H]([C@H]([C@@H]([C@H]5O)O)O)CO
INCHI=HGUVPEBGCAVWID-KETMJRJWSA-N
INCHIAUX=N/A
PUBMED=N/A
LIBRARYQUALITY=1
85.02824	4
267.06517	2
271.06015	7
281.08082	2
283.06075	100
283.09951	4
284.06437	4
295.06003	7
297.07576	2
307.06007	2
309.03926	2
309.07587	15
313.07113	73
313.08184	4
313.11153	3
314.07396	4
323.09135	20
323.10339	2
333.07584	4
337.07091	43
337.10966	2
338.07408	3
349.07079	17
349.08328	2
351.08626	6
361.07084	17
367.08121	8
379.08134	22
379.09461	2
397.09187	12
415.10222	2
END IONS

BEGIN IONS
PEPMASS=595.16571
CHARGE=1
MSLEVEL=2
FILENAME=PhenolicsDB_Positive.mgf
SCANS=131
SEQ=*..*
IONMODE=Positive
ORGANISM=N/A
NAME=Saponarin 60eV
PI=Jessica Cooperstone
DATACOLECTOR=DOI:10.5281/zenodo.8475
SMILES=OC1=C2C(OC(C3=CC=C(C=C3)O)=CC2=O)=CC(O[C@@H]4O[C@@H]([C@H]([C@@H]([C@H]4O)O)O)CO)=C1[C@]5([H])O[C@@H]([C@H]([C@@H]([C@H]5O)O)O)CO
INCHI=HGUVPEBGCAVWID-KETMJRJWSA-N
INCHIAUX=N/A
PUBMED=N/A
LIBRARYQUALITY=1
50.98436	2
59.01248	2
73.02846	3
77.03953	6
83.01319	3
91.01996	2
92.02713	4
93.03533	6
96.0531	2
97.02844	2
100.017	6
101.01921	2
105.03351	9
106.0385	3
108.01739	4
110.03247	2
117.03499	20
117.04377	2
118.03801	8
118.22454	3
119.04019	2
119.04978	6
120.05327	3
121.03004	4
122.0319	4
130.62348	2
134.03923	2
135.04372	6
141.46249	2
145.02932	5
149.02397	15
149.03262	3
151.00474	4
156.05826	3
158.03633	2
159.04606	4
160.04837	2
161.02306	6
163.00432	3
163.03199	2
163.03988	14
164.04606	3
165.0057	4
165.0176	5
167.02237	2
169.06548	4
171.08102	2
173.02413	3
175.00392	4
176.00724	4
176.21451	2
177.017	5
177.02116	4
178.02344	2
178.99864	13
179.0341	3
180.00187	3
181.00545	4
185.02544	2
185.0616	3
186.02821	5
186.068	3
187.06863	3
190.99873	3
191.03186	6
193.03912	3
193.04269	3
195.04492	2
197.0595	2
201.0536	4
201.06382	2
202.90045	3
203.03399	5
203.04608	2
203.82595	2
206.02063	4
211.07001	2
211.07544	2
214.0601	2
216.07243	2
217.01616	2
223.03913	4
223.06946	2
223.07748	3
224.07593	2
225.02033	3
226.0579	8
227.07296	4
228.03896	4
229.04146	3
229.05282	3
229.14065	3
230.01763	4
231.02192	4
232.0274	2
236.04897	3
239.0678	4
241.03906	2
242.04671	3
242.05386	3
252.07559	3
253.01646	3
253.05002	3
254.0487	3
254.05492	3
265.05318	3
266.05403	3
266.06807	2
267.02827	2
268.03803	8
268.06307	3
269.04518	29
269.05838	2
269.06999	3
270.04968	18
270.06272	2
271.05051	23
271.06167	5
281.04602	37
282.05273	64
282.07319	2
282.76773	2
282.96992	2
283.05966	100
283.07335	8
283.09454	2
283.81419	2
284.06296	52
284.07214	7
284.07723	4
284.37351	3
285.06675	71
285.07877	9
285.09521	3
285.10564	2
285.11131	2
286.06851	2
293.04488	7
293.05318	5
294.04928	6
295.02499	23
295.03935	2
295.05229	7
295.0597	2
296.02545	9
296.0312	4
296.0377	2
296.06572	9
297.02968	15
297.03963	100
297.0517	10
297.06682	5
297.08154	3
298.04351	91
298.05376	11
298.06059	5
298.07233	3
298.08305	2
299.0464	100
299.06055	7
299.0897	2
300.04982	2
305.44468	5
307.05885	2
308.03826	2
308.05746	2
310.04348	10
310.04967	2
311.04289	14
311.05707	34
311.07048	6
311.8014	2
312.05985	45
312.0716	5
313.06194	56
313.07395	5
313.48712	2
319.05504	2
321.03852	2
322.04248	2
323.04505	3
323.0579	6
324.05675	4
325.06186	8
327.0498	4
335.05721	4
336.05599	2
340.05446	4
341.06583	5
342.07023	3
343.06799	3
343.07489	4
349.06921	3
355.07456	4
385.23334	2
460.5563	3
468.34615	3
475.11064	4
569.3288	3
603.38195	2
630.49185	3
674.24827	2
698.72899	2
712.69835	4
719.22667	2
END IONS

BEGIN IONS
PEPMASS=595.16571
CHARGE=1
MSLEVEL=2
FILENAME=PhenolicsDB_Positive.mgf
SCANS=132
SEQ=*..*
IONMODE=Positive
ORGANISM=N/A
NAME=Saponarin 80eV
PI=Jessica Cooperstone
DATACOLECTOR=DOI:10.5281/zenodo.8475
SMILES=OC1=C2C(OC(C3=CC=C(C=C3)O)=CC2=O)=CC(O[C@@H]4O[C@@H]([C@H]([C@@H]([C@H]4O)O)O)CO)=C1[C@]5([H])O[C@@H]([C@H]([C@@H]([C@H]5O)O)O)CO
INCHI=HGUVPEBGCAVWID-KETMJRJWSA-N
INCHIAUX=N/A
PUBMED=N/A
LIBRARYQUALITY=1
63.02423	15
64.02649	3
65.0029	24
66.00568	4
68.21089	3
68.76031	2
68.99731	6
69.22151	2
71.31316	2
77.03874	6
78.04334	11
78.05017	2
79.01789	10
81.02541	4
81.03532	3
88.02769	3
88.03355	2
89.00203	2
92.02232	7
92.99884	4
93.03381	8
93.03622	3
94.03205	8
94.03738	6
95.00081	2
95.01544	4
105.03686	2
107.0132	4
107.04762	2
108.01607	2
109.99434	5
110.03121	2
111.00993	4
113.01267	4
117.03466	100
117.04183	9
117.05063	2
117.05954	3
117.12355	2
118.0377	45
118.04583	4
118.71696	2
119.0147	12
119.03859	15
119.04232	4
119.04998	9
121.01886	5
121.02935	9
121.03744	2
122.03149	15
123.04466	4
125.02421	4
131.01423	18
131.01799	3
132.01735	6
133.0292	17
135.00869	23
135.01559	4
135.04719	13
136.0116	7
136.01712	4
137.02433	10
137.03049	2
144.57036	5
146.03096	2
147.01083	4
147.96412	2
148.01917	5
149.0242	22
149.03235	2
150.02779	17
150.03754	2
151.00422	8
151.02647	4
151.03132	4
152.00709	9
153.0109	2
156.755	2
159.0412	4
159.04739	4
159.1735	2
160.04095	6
160.0495	14
161.02498	30
161.03352	3
161.04839	5
161.05826	2
162.02838	13
162.9638	3
163.00352	7
163.02999	3
163.04018	15
163.04666	2
163.05091	2
163.44927	2
164.04471	10
164.05316	3
165.00623	4
165.01716	7
165.04023	3
165.04617	2
165.05222	2
166.02194	9
166.07424	5
168.02849	5
168.05057	3
169.06685	5
170.06954	9
170.07867	2
171.04571	8
172.04358	8
172.08468	6
172.97658	2
173.06282	12
173.99447	4
174.03299	4
175.00399	23
175.01323	4
175.04109	7
176.00848	2
176.98238	20
176.99322	3
177.00865	3
177.01843	33
177.0279	4
177.04603	3
177.98888	3
178.02107	10
178.98663	3
178.99868	66
179.00774	5
179.02387	19
179.0313	2
179.05123	3
179.27067	2
179.71656	2
180.00078	31
181.00393	27
181.0127	2
181.06317	6
181.07071	4
181.11067	2
182.07236	5
182.08289	2
183.04401	10
183.05391	2
183.07104	8
183.0806	5
185.02343	13
185.03805	2
185.05147	7
185.05983	5
186.03321	14
186.03852	2
186.07058	3
187.03001	7
190.48019	2
191.02708	4
193.01521	2
193.03758	7
194.01809	7
194.06898	4
195.01802	3
195.04868	4
195.07366	4
196.05112	2
197.06236	13
197.08914	4
198.0311	7
198.05628	7
198.06405	7
198.07278	2
199.00032	2
199.04022	5
200.04297	2
201.05175	2
203.05896	4
203.06667	4
207.04492	10
207.05808	2
208.05161	5
209.02588	4
209.05943	8
210.02618	2
210.03344	4
210.06682	9
211.03072	3
211.03858	4
211.04816	2
211.066	2
211.07404	12
211.08281	2
212.04417	4
213.02088	3
213.05371	4
215.97983	2
216.00421	2
216.07406	3
216.08316	2
219.02871	4
219.03796	2
223.03787	3
223.04293	3
225.01608	2
225.05435	23
226.05925	8
226.06613	2
226.38064	2
227.03433	27
227.04659	5
227.06099	7
227.06617	3
227.95929	3
228.03691	5
228.07124	5
228.08175	2
229.0363	6
229.04359	2
236.0421	8
236.04983	2
237.04622	2
237.05547	17
237.68881	3
238.06123	7
239.03311	7
239.06325	10
239.07152	8
239.08309	2
239.94834	3
240.03902	7
240.04503	6
240.07529	3
241.04734	10
241.07385	3
242.0482	3
243.0479	6
244.0303	4
249.05577	2
251.03507	10
252.03245	7
253.04805	2
254.05335	12
254.06481	2
254.2655	2
255.01873	3
255.05435	5
255.0629	9
255.07556	2
256.03418	2
257.07152	2
265.0146	6
265.02601	2
266.05307	3
268.03744	9
268.82355	2
269.04413	31
269.05576	7
269.51615	2
270.04932	21
270.06067	4
271.05073	20
281.04498	34
281.05918	4
282.05286	48
282.06293	3
282.08953	2
283.05907	72
283.071	6
283.07584	4
283.08981	2
284.06256	40
284.0753	7
284.25257	2
285.06589	19
285.07966	2
286.33154	2
286.40557	2
293.04599	16
293.05849	4
294.0507	6
295.01887	3
295.02645	29
295.04155	2
295.05349	9
295.06173	8
296.02864	42
296.04195	3
296.06367	4
297.0303	29
297.04192	25
297.05161	4
297.06906	5
297.95979	2
298.0446	25
298.0554	3
298.51775	2
299.04572	43
299.05741	3
299.06708	2
309.48352	2
310.04546	3
310.49951	2
311.04884	2
311.05474	12
311.06665	3
311.07688	2
312.05525	5
312.06773	2
313.05901	5
313.07022	4
313.27322	2
324.05625	2
324.49446	2
329.05449	4
335.0689	5
364.67681	6
393.27034	2
404.01886	4
422.19509	2
448.86699	2
454.19269	2
459.87276	2
488.65077	3
511.39673	2
530.49472	2
538.47877	2
568.90564	7
596.57486	3
597.68579	6
597.70369	2
631.81296	2
653.8684	2
667.41235	2
683.20429	2
692.57578	2
696.10074	2
705.49567	3
709.75461	7
766.61484	2
788.76634	6
794.02977	3
800.8257	2
813.66478	2
813.6962	2
833.81604	2
892.11063	3
895.1084	5
904.32386	2
END IONS

BEGIN IONS
PEPMASS=193.0495
CHARGE=1
MSLEVEL=2
FILENAME=PhenolicsDB_Positive.mgf
SCANS=133
SEQ=*..*
IONMODE=Positive
ORGANISM=N/A
NAME=Scopoletin 20eV
PI=Jessica Cooperstone
DATACOLECTOR=DOI:10.5281/zenodo.8475
SMILES=O=C1C=CC2=CC(OC)=C(O)C=C2O1
INCHI=RODXRVNMMDRFIK-UHFFFAOYSA-N
INCHIAUX=N/A
PUBMED=N/A
LIBRARYQUALITY=1
77.03868	3
89.0388	2
94.04165	3
105.03384	3
117.03387	2
122.03667	11
133.0297	100
133.05557	4
137.06042	29
149.06014	6
150.03154	9
161.02371	2
165.05515	6
178.02743	72
178.05763	3
193.05094	72
193.08247	3
END IONS

BEGIN IONS
PEPMASS=193.0495
CHARGE=1
MSLEVEL=2
FILENAME=PhenolicsDB_Positive.mgf
SCANS=134
SEQ=*..*
IONMODE=Positive
ORGANISM=N/A
NAME=Scopoletin 40eV
PI=Jessica Cooperstone
DATACOLECTOR=DOI:10.5281/zenodo.8475
SMILES=O=C1C=CC2=CC(OC)=C(O)C=C2O1
INCHI=RODXRVNMMDRFIK-UHFFFAOYSA-N
INCHIAUX=N/A
PUBMED=N/A
LIBRARYQUALITY=1
51.02244	15
52.03027	2
53.03814	31
53.04268	2
55.01732	2
65.03813	12
66.04622	71
66.06505	2
68.02519	2
68.99682	6
76.03046	3
77.03844	56
77.04398	3
77.0589	2
78.046	4
79.01754	4
79.05389	2
81.03336	61
81.03904	3
81.05435	2
89.0383	3
91.05388	2
93.03306	2
94.04145	100
94.06387	4
105.03333	21
121.02819	11
122.03634	59
122.04339	3
122.06204	2
133.02836	20
137.05954	8
150.0311	33
150.03858	2
161.0231	5
178.02586	8
END IONS

BEGIN IONS
PEPMASS=193.0495
CHARGE=1
MSLEVEL=2
FILENAME=PhenolicsDB_Positive.mgf
SCANS=135
SEQ=*..*
IONMODE=Positive
ORGANISM=N/A
NAME=Scopoletin 60eV
PI=Jessica Cooperstone
DATACOLECTOR=DOI:10.5281/zenodo.8475
SMILES=O=C1C=CC2=CC(OC)=C(O)C=C2O1
INCHI=RODXRVNMMDRFIK-UHFFFAOYSA-N
INCHIAUX=N/A
PUBMED=N/A
LIBRARYQUALITY=1
50.01465	10
51.0226	68
51.02705	3
52.03027	6
53.00172	4
53.03832	100
53.05524	3
54.00958	2
55.01745	8
63.02264	3
65.03835	59
65.04323	3
66.04622	75
66.05117	3
68.02536	3
68.99679	17
75.02269	2
76.0305	6
77.03835	30
78.04605	3
79.01756	7
81.0333	24
93.03335	4
94.04114	18
105.0333	8
121.02828	7
END IONS

BEGIN IONS
PEPMASS=193.0495
CHARGE=1
MSLEVEL=2
FILENAME=PhenolicsDB_Positive.mgf
SCANS=136
SEQ=*..*
IONMODE=Positive
ORGANISM=N/A
NAME=Scopoletin 80eV
PI=Jessica Cooperstone
DATACOLECTOR=DOI:10.5281/zenodo.8475
SMILES=O=C1C=CC2=CC(OC)=C(O)C=C2O1
INCHI=RODXRVNMMDRFIK-UHFFFAOYSA-N
INCHIAUX=N/A
PUBMED=N/A
LIBRARYQUALITY=1
50.01394	22
50.01565	17
50.01973	2
51.02258	100
51.02693	5
52.03037	7
53.00177	11
53.03818	56
53.04294	3
55.0174	6
62.01462	4
63.02257	5
65.03832	49
65.04362	3
66.04617	21
68.02547	2
68.99684	25
69.00275	2
74.01488	5
75.02252	5
76.03045	3
77.03838	11
79.0176	4
81.03342	3
END IONS

BEGIN IONS
PEPMASS=225.07567
CHARGE=1
MSLEVEL=2
FILENAME=PhenolicsDB_Positive.mgf
SCANS=137
SEQ=*..*
IONMODE=Positive
ORGANISM=N/A
NAME=Sinapic acid 20eV
PI=Jessica Cooperstone
DATACOLECTOR=DOI:10.5281/zenodo.8475
SMILES=COC1=CC(=CC(=C1O)OC)C=CC(=O)O
INCHI=PCMORTLOPMLEFB-ONEGZZNKSA-N
INCHIAUX=N/A
PUBMED=N/A
LIBRARYQUALITY=1
101.03847	2
103.05394	3
117.03332	2
118.04097	5
119.04906	100
129.03326	17
132.02026	4
133.02823	2
136.05147	2
145.02803	3
146.03576	2
147.04391	85
149.02278	6
164.04628	9
174.0306	3
175.03872	80
177.01782	3
179.0697	9
192.04163	43
207.06482	31
END IONS

BEGIN IONS
PEPMASS=225.07567
CHARGE=1
MSLEVEL=2
FILENAME=PhenolicsDB_Positive.mgf
SCANS=138
SEQ=*..*
IONMODE=Positive
ORGANISM=N/A
NAME=Sinapic acid 40eV
PI=Jessica Cooperstone
DATACOLECTOR=DOI:10.5281/zenodo.8475
SMILES=COC1=CC(=CC(=C1O)OC)C=CC(=O)O
INCHI=PCMORTLOPMLEFB-ONEGZZNKSA-N
INCHIAUX=N/A
PUBMED=N/A
LIBRARYQUALITY=1
101.03856	38
102.0461	4
103.05389	4
104.02559	38
105.03349	15
106.04109	6
107.04894	29
108.05658	7
110.03603	2
116.02581	2
117.03343	26
118.04133	70
119.04912	68
121.02834	56
122.03602	3
123.0434	2
129.03325	7
132.02044	30
133.02838	11
134.03604	15
135.04383	28
136.05122	7
137.05932	3
138.03098	4
145.02786	6
146.03598	5
147.04391	19
149.02331	100
162.03121	2
163.03866	11
164.04641	5
177.01792	5
192.04171	2
END IONS

BEGIN IONS
PEPMASS=343.12399
CHARGE=1
MSLEVEL=2
FILENAME=PhenolicsDB_Positive.mgf
SCANS=139
SEQ=*..*
IONMODE=Positive
ORGANISM=N/A
NAME=Sucrose 20eV
PI=Jessica Cooperstone
DATACOLECTOR=DOI:10.5281/zenodo.8475
SMILES=C(C1C(C(C(C(O1)OC2(C(C(C(O2)CO)O)O)CO)O)O)O)O
INCHI=CZMRCDWAGMRECN-UGDNZRGBSA-N
INCHIAUX=N/A
PUBMED=N/A
LIBRARYQUALITY=1
101.09544	9
102.02308	3
102.12823	30
103.04018	4
110.03104	2
116.04333	2
127.039	100
128.04199	86
133.04726	3
141.10043	9
141.30797	2
144.7221	2
145.04897	94
145.17269	3
145.74721	2
146.0528	20
147.04128	5
163.061	13
163.34814	2
164.06518	2
170.056	2
172.09227	4
172.95536	7
180.08675	3
181.08616	6
183.29602	2
197.16652	3
206.04941	2
213.92335	3
224.05709	2
237.20366	2
240.97826	5
241.19731	7
245.49645	6
257.19137	4
261.026	2
272.07859	9
282.88981	4
283.10399	3
325.22359	4
325.26402	5
342.96275	6
343.11754	4
343.2372	2
END IONS

BEGIN IONS
PEPMASS=343.12399
CHARGE=1
MSLEVEL=2
FILENAME=PhenolicsDB_Positive.mgf
SCANS=140
SEQ=*..*
IONMODE=Positive
ORGANISM=N/A
NAME=Sucrose 40eV
PI=Jessica Cooperstone
DATACOLECTOR=DOI:10.5281/zenodo.8475
SMILES=C(C1C(C(C(C(O1)OC2(C(C(C(O2)CO)O)O)CO)O)O)O)O
INCHI=CZMRCDWAGMRECN-UGDNZRGBSA-N
INCHIAUX=N/A
PUBMED=N/A
LIBRARYQUALITY=1
101.02257	18
101.44399	4
102.02701	22
109.02899	59
109.06334	5
110.0589	24
110.09721	27
112.07767	19
115.03741	100
115.06968	6
127.03881	97
127.07495	6
128.0394	20
131.94641	48
131.9778	4
131.99751	2
134.95698	66
143.59639	2
143.95693	36
153.0545	30
154.88393	36
163.09411	10
164.90752	16
170.9694	26
181.10372	32
183.48978	4
184.90622	27
188.06986	30
196.98822	6
200.43483	10
240.56878	14
248.88717	55
312.16264	24
1071.70331	10
1616.83948	2
END IONS

BEGIN IONS
PEPMASS=317.06561
CHARGE=1
MSLEVEL=2
FILENAME=PhenolicsDB_Positive.mgf
SCANS=141
SEQ=*..*
IONMODE=Positive
ORGANISM=N/A
NAME=Tamarixetin 20eV
PI=Jessica Cooperstone
DATACOLECTOR=DOI:10.5281/zenodo.8475
SMILES=OC1=CC(O)=C(C(C(O)=C(C2=CC=C(OC)C(O)=C2)O3)=O)C3=C1
INCHI=FPLMIPQZHHQWHN-UHFFFAOYSA-N
INCHIAUX=N/A
PUBMED=N/A
LIBRARYQUALITY=1
153.01818	2
274.04727	3
285.03934	3
302.04261	15
317.06731	100
END IONS

BEGIN IONS
PEPMASS=317.06561
CHARGE=1
MSLEVEL=2
FILENAME=PhenolicsDB_Positive.mgf
SCANS=142
SEQ=*..*
IONMODE=Positive
ORGANISM=N/A
NAME=Tamarixetin 40eV
PI=Jessica Cooperstone
DATACOLECTOR=DOI:10.5281/zenodo.8475
SMILES=OC1=CC(O)=C(C(C(O)=C(C2=CC=C(OC)C(O)=C2)O3)=O)C3=C1
INCHI=FPLMIPQZHHQWHN-UHFFFAOYSA-N
INCHIAUX=N/A
PUBMED=N/A
LIBRARYQUALITY=1
65.03819	8
68.99664	5
92.02546	22
93.03322	18
94.04104	2
109.0282	2
120.02035	2
121.02816	12
122.03593	4
123.04388	2
124.01543	2
126.0309	9
127.05412	2
136.01544	2
137.02306	4
151.03885	3
152.01024	3
153.01845	100
153.0471	4
155.04897	3
161.05924	2
165.01808	3
166.02625	2
172.05186	2
173.05954	4
179.03396	3
183.04408	4
187.03888	2
189.05452	3
190.06233	2
192.04159	2
200.04667	6
201.05457	10
203.03379	15
204.04168	2
217.04946	30
217.05929	2
218.05715	7
219.02891	6
228.04164	24
228.05127	2
229.04944	23
229.0595	2
231.02855	8
245.04448	30
245.0539	2
246.05239	14
256.03649	3
257.04426	8
259.02347	2
260.0317	3
273.0394	16
274.0472	13
284.0313	3
285.0395	12
301.03376	3
302.0422	16
317.06495	2
END IONS

BEGIN IONS
PEPMASS=317.06561
CHARGE=1
MSLEVEL=2
FILENAME=PhenolicsDB_Positive.mgf
SCANS=143
SEQ=*..*
IONMODE=Positive
ORGANISM=N/A
NAME=Tamarixetin 60eV
PI=Jessica Cooperstone
DATACOLECTOR=DOI:10.5281/zenodo.8475
SMILES=OC1=CC(O)=C(C(C(O)=C(C2=CC=C(OC)C(O)=C2)O3)=O)C3=C1
INCHI=FPLMIPQZHHQWHN-UHFFFAOYSA-N
INCHIAUX=N/A
PUBMED=N/A
LIBRARYQUALITY=1
51.02318	3
52.03112	2
53.0389	4
55.01814	10
63.0233	5
64.03118	11
65.03908	51
65.04475	3
66.04687	14
67.01837	20
67.0547	2
68.02609	3
68.99762	46
69.00357	3
69.03411	17
77.0391	14
78.0108	2
78.04742	2
79.01839	4
79.05477	3
80.02621	2
81.03415	13
83.01338	3
85.02924	3
89.0394	2
91.01827	2
91.05508	9
92.0264	54
92.03283	3
93.03417	15
94.04194	12
95.01324	4
96.02121	8
97.02901	6
101.03928	2
102.04703	3
103.05491	8
105.03423	7
105.0705	8
107.05014	3
108.02137	12
109.02918	8
111.00847	8
115.0551	24
115.06292	2
116.06287	6
117.07082	4
118.04206	2
119.01344	2
119.04993	4
121.02931	19
121.06555	3
122.03723	10
123.04488	4
124.01631	15
126.03206	12
126.04716	2
127.055	16
128.06302	3
129.03457	2
131.05	8
133.02936	3
133.06583	4
134.0371	3
135.04514	2
136.01625	5
137.02415	15
143.05011	3
144.05769	7
145.0291	2
145.06572	2
146.03726	2
147.04491	15
148.05291	2
151.03976	2
152.01129	4
153.01926	100
153.02711	6
155.05005	14
157.02929	2
159.04439	2
160.05266	2
161.02419	3
161.06073	10
163.0398	6
171.04498	14
172.0527	4
173.06074	5
174.03257	2
175.03978	10
176.0478	2
177.0189	3
177.05585	2
179.0349	7
183.04513	6
185.02437	2
187.03983	6
189.05543	10
191.03489	3
192.04265	4
193.01433	2
199.03964	6
200.04767	7
201.05545	4
203.03493	39
203.04485	3
211.03986	2
216.04244	2
217.05067	51
217.06081	4
219.0296	12
227.03463	6
228.0427	9
229.05053	11
231.02995	5
245.04559	32
245.05599	3
257.04466	2
285.03998	3
END IONS

BEGIN IONS
PEPMASS=317.06561
CHARGE=1
MSLEVEL=2
FILENAME=PhenolicsDB_Positive.mgf
SCANS=144
SEQ=*..*
IONMODE=Positive
ORGANISM=N/A
NAME=Tamarixetin 80eV
PI=Jessica Cooperstone
DATACOLECTOR=DOI:10.5281/zenodo.8475
SMILES=OC1=CC(O)=C(C(C(O)=C(C2=CC=C(OC)C(O)=C2)O3)=O)C3=C1
INCHI=FPLMIPQZHHQWHN-UHFFFAOYSA-N
INCHIAUX=N/A
PUBMED=N/A
LIBRARYQUALITY=1
50.0154	15
51.0232	18
52.03103	10
53.00244	3
53.03892	15
55.01818	22
55.02346	2
63.02337	27
63.02916	2
64.03115	26
64.03677	2
65.03909	82
65.04462	5
66.04686	23
66.05288	2
67.01831	30
67.02425	2
67.05473	2
68.02606	7
68.99767	100
69.00328	6
69.03401	25
69.04027	3
75.02347	5
76.03137	2
77.03923	49
77.04558	2
78.01064	7
78.04696	5
79.01843	8
79.05489	9
80.02652	3
81.0341	26
81.04034	2
83.0135	3
85.02915	4
89.03924	13
90.04734	2
91.01846	8
91.05502	27
91.06209	2
92.02624	26
92.03309	2
92.99775	4
93.03418	8
94.04204	8
95.01351	5
96.02133	13
97.0292	6
101.03941	8
102.04731	4
103.05499	13
105.03423	9
105.07057	8
107.01389	2
107.05022	3
108.02126	12
109.02924	4
111.00844	9
115.05508	50
115.06263	3
116.06286	2
118.04245	3
119.01385	2
119.04983	4
121.02929	9
122.03713	2
123.04497	3
124.01633	10
126.03202	3
126.04741	6
127.05522	17
128.06272	3
129.03436	3
131.05008	7
133.02947	3
133.06605	2
135.04498	2
136.01635	2
137.02404	11
143.05007	4
144.05779	2
145.02945	4
147.04487	10
153.01926	29
153.02756	2
155.05006	9
157.0297	2
160.05339	2
161.02434	4
161.06029	3
163.03976	4
171.04485	9
175.04026	4
187.03951	2
189.05561	2
199.03958	2
203.03487	9
217.05072	6
219.02942	2
227.03497	2
245.04503	2
END IONS

BEGIN IONS
PEPMASS=437.1441
CHARGE=1
MSLEVEL=2
FILENAME=PhenolicsDB_Positive.mgf
SCANS=145
SEQ=*..*
IONMODE=Positive
ORGANISM=N/A
NAME=Trilobatin 20eV
PI=Jessica Cooperstone
DATACOLECTOR=DOI:10.5281/zenodo.8475
SMILES=C1=CC(=CC=C1CCC(=O)C2=C(C=C(C=C2O)OC3C(C(C(C(O3)CO)O)O)O)O)O
INCHI=GSTCPEBQYSOEHV-QNDFHXLGSA-N
INCHIAUX=N/A
PUBMED=N/A
LIBRARYQUALITY=1
107.04902	100
108.05234	2
127.03869	3
149.05958	5
169.04945	24
235.0594	2
275.09108	41
287.09105	2
317.10125	2
341.10144	2
353.10147	2
END IONS

BEGIN IONS
PEPMASS=437.1441
CHARGE=1
MSLEVEL=2
FILENAME=PhenolicsDB_Positive.mgf
SCANS=146
SEQ=*..*
IONMODE=Positive
ORGANISM=N/A
NAME=Trilobatin 40eV
PI=Jessica Cooperstone
DATACOLECTOR=DOI:10.5281/zenodo.8475
SMILES=C1=CC(=CC=C1CCC(=O)C2=C(C=C(C=C2O)OC3C(C(C(C(O3)CO)O)O)O)O)O
INCHI=GSTCPEBQYSOEHV-QNDFHXLGSA-N
INCHIAUX=N/A
PUBMED=N/A
LIBRARYQUALITY=1
107.04911	100
127.03903	2
151.03871	3
169.04931	11
END IONS

BEGIN IONS
PEPMASS=169.04945
CHARGE=1
MSLEVEL=2
FILENAME=PhenolicsDB_Positive.mgf
SCANS=147
SEQ=*..*
IONMODE=Positive
ORGANISM=N/A
NAME=Vanillic acid 20eV
PI=Jessica Cooperstone
DATACOLECTOR=DOI:10.5281/zenodo.8475
SMILES=COC1=C(C=CC(=C1)C(=O)O)O
INCHI=WKOLLVMJNQIZCI-UHFFFAOYSA-N
INCHIAUX=N/A
PUBMED=N/A
LIBRARYQUALITY=1
107.04823	3
108.02075	15
109.02839	20
110.03634	93
123.04418	47
124.05175	10
125.05986	31
136.01478	10
137.02364	3
151.03877	100
169.04888	2
END IONS

BEGIN IONS
PEPMASS=169.04945
CHARGE=1
MSLEVEL=2
FILENAME=PhenolicsDB_Positive.mgf
SCANS=148
SEQ=*..*
IONMODE=Positive
ORGANISM=N/A
NAME=Vanillic acid 40eV
PI=Jessica Cooperstone
DATACOLECTOR=DOI:10.5281/zenodo.8475
SMILES=COC1=C(C=CC(=C1)C(=O)O)O
INCHI=WKOLLVMJNQIZCI-UHFFFAOYSA-N
INCHIAUX=N/A
PUBMED=N/A
LIBRARYQUALITY=1
108.02045	100
109.02785	70
110.03563	65
123.04401	5
124.05089	4
136.01493	4
151.03818	3
END IONS

BEGIN IONS
PEPMASS=155.07019
CHARGE=1
MSLEVEL=2
FILENAME=PhenolicsDB_Positive.mgf
SCANS=149
SEQ=*..*
IONMODE=Positive
ORGANISM=N/A
NAME=Vanillyl alcohol 20eV
PI=Jessica Cooperstone
DATACOLECTOR=DOI:10.5281/zenodo.8475
SMILES=COC1=C(C=CC(=C1)CO)O
INCHI=ZENOXNGFMSCLLL-UHFFFAOYSA-N
INCHIAUX=N/A
PUBMED=N/A
LIBRARYQUALITY=1
100.93223	41
100.97866	2
108.95943	48
109.02828	38
109.06199	45
109.95537	13
111.00992	16
111.04157	20
112.05088	36
112.08341	2
112.50754	12
113.11094	15
113.96339	5
114.29562	9
114.32493	2
114.97844	9
115.96198	22
118.91772	20
122.55631	2
123.03828	19
123.25819	6
124.04652	31
126.0654	16
127.05293	13
128.06104	21
136.04622	33
137.02189	13
137.05314	28
137.09121	2
137.14967	18
137.28388	7
138.06657	23
139.05499	16
154.05869	25
155.03241	43
155.08631	2
155.1541	100
156.04889	10
157.07475	11
162.89888	6
175.91153	23
181.0659	8
225.05454	10
270.1545	12
1112.49625	3
1257.11043	11
1665.5085	2
END IONS

BEGIN IONS
PEPMASS=155.07019
CHARGE=1
MSLEVEL=2
FILENAME=PhenolicsDB_Positive.mgf
SCANS=150
SEQ=*..*
IONMODE=Positive
ORGANISM=N/A
NAME=Vanillyl alcohol 40eV
PI=Jessica Cooperstone
DATACOLECTOR=DOI:10.5281/zenodo.8475
SMILES=COC1=C(C=CC(=C1)CO)O
INCHI=ZENOXNGFMSCLLL-UHFFFAOYSA-N
INCHIAUX=N/A
PUBMED=N/A
LIBRARYQUALITY=1
101.03837	13
102.04654	48
102.0757	3
114.04265	20
114.11788	9
115.05388	47
116.05426	33
118.91982	69
118.95278	4
119.03271	3
119.09453	7
119.28297	2
126.0477	66
127.05615	85
127.08852	3
128.06368	100
128.12131	2
128.35987	5
128.70251	8
128.99984	5
137.05622	31
138.92247	8
139.05509	41
140.06081	23
141.28495	5
151.05181	17
152.05985	61
153.0626	30
155.04408	13
160.16706	5
167.04736	42
168.06079	24
469.14426	15
469.195	2
473.22002	14
894.34603	3
1007.55343	5
1352.23856	11
END IONS
