NAME: (-)-Epicatechin
PRECURSORMZ: 289.0712
PRECURSORTYPE: [M-H]-
FORMULA: C15H14O6
RETENTIONTIME: 2.423
IONMODE: Negative
COMMENT: Spectra extracted with MS2extract R package
INCHIKEY: PFTAWBLQPZVEMU-UKRRQHHQSA-N
SMILES: C1C(C(OC2=CC(=CC(=C21)O)O)C3=CC(=C(C=C3)O)O)O
CCS: 
COLLISIONENERGY: 20eV
INSTRUMENTTYPE: ESI-QTOF
Num Peaks: 53
108.02162 2
109.02959 100
121.02971 16
122.03749 4
123.04522 56
125.02451 80
135.04522 7
137.02447 39
138.03231 5
139.04002 9
145.02952 4
146.03731 3
147.04504 2
149.02462 21
150.03216 3
151.04009 48
159.04513 7
160.05306 6
161.02454 4
161.06096 21
162.03227 7
163.03995 5
164.01167 13
165.01959 18
166.02703 4
167.03491 9
173.06063 3
174.03236 2
174.06814 2
175.04005 9
175.07611 8
177.05562 3
179.03533 25
180.04289 2
185.06076 4
186.06868 2
187.04021 21
188.04801 17
199.07621 3
201.05546 2
202.0636 12
203.07127 77
205.05064 43
212.04767 3
217.08679 4
221.08239 29
227.07146 12
230.05831 5
231.02959 3
245.08196 69
247.06106 7
271.06104 5
289.07177 40

NAME: (-)-Epicatechin
PRECURSORMZ: 289.0712
PRECURSORTYPE: [M-H]-
FORMULA: C15H14O6
RETENTIONTIME: 2.423
IONMODE: Negative
COMMENT: Spectra extracted with MS2extract R package
INCHIKEY: PFTAWBLQPZVEMU-UKRRQHHQSA-N
SMILES: C1C(C(OC2=CC(=CC(=C21)O)O)C3=CC(=C(C=C3)O)O)O
CCS: 
COLLISIONENERGY: 40eV
INSTRUMENTTYPE: ESI-QTOF
Num Peaks: 41
105.03428 7
107.05 3
108.0216 12
109.02933 100
117.03441 6
120.02139 2
121.0295 22
122.03738 21
123.04505 93
125.0244 16
131.04992 2
133.02917 3
133.06524 2
135.04504 9
137.02436 16
138.03204 3
145.02932 8
146.03702 4
147.04502 2
149.02416 5
149.06008 2
150.032 8
151.03988 10
157.06555 2
158.03702 2
159.04503 14
160.05269 4
161.02417 2
161.06044 5
162.03194 3
163.03962 2
164.01125 6
173.06059 7
174.03202 2
175.03975 2
175.07609 4
185.06092 2
187.03994 6
188.04736 3
201.05561 3
203.07091 3

NAME: (E)-Cinnamic acid
PRECURSORMZ: 147.0452
PRECURSORTYPE: [M-H]-
FORMULA: C9H8O2
RETENTIONTIME: 3.681
IONMODE: Negative
COMMENT: Spectra extracted with MS2extract R package
INCHIKEY: WBYWAXJHAXSJNI-VOTSOKGWSA-N
SMILES: C1=CC=C(C=C1)C=CC(=O)O
CCS: 
COLLISIONENERGY: 20eV
INSTRUMENTTYPE: ESI-QTOF
Num Peaks: 1
103.05521 100

NAME: (E)-Cinnamic acid
PRECURSORMZ: 147.0452
PRECURSORTYPE: [M-H]-
FORMULA: C9H8O2
RETENTIONTIME: 3.758
IONMODE: Negative
COMMENT: Spectra extracted with MS2extract R package
INCHIKEY: WBYWAXJHAXSJNI-VOTSOKGWSA-N
SMILES: C1=CC=C(C=C1)C=CC(=O)O
CCS: 
COLLISIONENERGY: 40eV
INSTRUMENTTYPE: ESI-QTOF
Num Peaks: 807
100.08879 16
101.03854 100
101.3143 17
101.40076 4
101.87564 13
101.91094 12
103.2483 2
104.23801 3
105.77842 24
105.80653 3
106.11484 18
106.13519 3
107.71986 7
108.65438 4
108.72972 21
108.76313 8
110.53632 17
110.67512 6
111.62571 12
111.73262 12
111.75602 2
111.81928 5
113.15787 7
113.70199 6
114.18431 18
114.51204 5
114.94069 5
115.46633 6
116.23477 13
117.36698 51
117.93398 9
117.9541 3
118.59952 12
118.75573 8
119.39223 8
121.36723 51
121.41191 2
121.95109 2
124.08365 8
124.93331 8
125.99275 5
128.20994 3
129.86228 9
130.07473 14
131.04672 3
132.43019 5
132.91055 25
134.36184 12
137.88476 2
138.94429 7
139.34337 3
139.68905 2
141.06081 3
141.89383 58
141.9459 2
142.91272 3
143.0416 7
143.24513 15
143.69575 21
144.11237 6
144.78507 9
145.14151 18
145.41215 12
145.57475 4
146.24058 5
146.7454 6
146.86088 38
146.8971 4
147.25461 6
147.58507 11
149.14427 30
149.18782 2
150.51008 6
151.06438 3
151.96788 9
153.41957 9
154.83876 12
155.29133 5
156.92775 33
158.39622 31
158.42093 3
158.70541 5
158.95973 11
159.17828 4
163.04103 9
163.91603 11
164.16598 7
166.5763 5
168.21648 7
170.58394 12
171.40283 6
172.14068 9
172.49662 2
172.94035 20
173.14951 4
173.62253 14
175.06933 3
175.48772 43
175.6051 74
175.81504 4
178.27976 2
178.54907 3
178.60826 43
179.30319 13
180.0013 8
181.05262 8
184.05019 4
184.38981 6
185.72328 11
185.83227 7
186.36347 3
186.40622 8
188.16198 12
190.62154 19
192.52151 5
193.21699 13
195.24789 6
195.32563 3
195.60856 22
196.95199 3
197.09848 10
201.94091 7
202.05384 22
202.27513 3
202.68414 18
203.83465 19
205.25467 2
208.41438 25
208.75643 5
209.96452 3
211.47428 5
213.14472 16
213.82537 2
214.35496 18
214.89435 6
215.41104 4
217.55854 13
217.82491 6
221.3905 17
222.73215 10
225.2479 38
225.27869 4
225.59573 23
225.72584 7
226.37924 3
226.67055 3
226.89972 8
227.19116 12
228.43497 13
229.51836 6
230.09813 4
231.91895 8
235.02384 12
235.65328 11
235.8454 6
238.31934 4
238.8074 5
240.93984 3
242.35838 18
243.05464 3
243.15222 6
244.33008 18
244.96096 9
245.30379 14
247.11955 30
247.27512 28
249.64163 16
251.28099 5
254.80238 11
254.95991 3
255.52053 2
256.41612 7
256.99328 13
257.30891 7
257.55305 4
258.00371 2
260.48574 5
261.42108 14
261.96873 11
262.04525 6
263.8762 13
266.80255 7
268.71279 6
269.6506 4
270.31808 13
271.41224 19
273.67821 4
273.93031 6
274.08251 37
274.67995 3
274.89897 7
275.83533 18
276.3198 15
276.63689 14
278.01492 3
280.22807 3
284.13144 8
286.14093 7
287.74017 10
293.29808 6
294.99242 4
297.04417 17
299.80127 3
300.92712 7
301.62511 25
301.69234 2
304.93013 2
305.08194 3
307.51899 6
309.35697 10
309.65279 7
309.78491 6
310.46948 65
310.55044 3
316.63369 15
317.46328 6
318.75999 3
319.36862 7
319.76575 2
325.01592 14
325.31686 7
325.38585 5
325.84157 10
326.37356 25
326.76751 18
329.69951 28
329.74694 15
329.80423 13
331.77015 5
334.73488 24
335.3834 6
338.08339 53
338.13623 4
340.27277 31
340.50021 8
340.90664 24
341.90013 49
341.961 3
343.63474 8
345.42236 2
345.752 8
350.1687 7
351.51032 5
351.90017 19
352.25289 29
354.4992 10
355.60119 52
355.76018 6
358.30931 2
358.70187 17
358.79685 51
358.8952 2
359.43764 6
359.75349 11
360.59661 10
361.11834 12
362.26493 36
363.23162 7
365.19321 7
367.68909 3
368.15964 4
368.53569 23
368.59154 5
368.64308 6
369.48645 4
371.98846 10
374.01125 15
374.44012 9
376.38116 30
378.50806 12
383.19667 4
384.13648 6
384.53864 4
385.4716 11
390.36275 2
390.78183 6
394.9619 5
396.1336 10
396.9021 3
397.59484 4
398.22868 3
398.77454 4
399.57359 7
399.93045 4
400.49143 4
403.32968 12
403.72272 17
406.85517 3
407.88907 9
412.26344 4
413.29449 32
413.33329 7
414.62904 6
415.56244 14
416.15107 5
416.8891 2
421.2377 10
421.90161 3
424.105 31
428.37511 13
431.02018 4
431.58024 12
432.89904 8
439.46472 7
440.74875 20
441.00072 31
441.68559 60
441.74755 5
443.74462 2
448.62214 19
449.01325 5
449.23333 14
449.60139 8
451.74282 17
454.30037 21
457.34961 4
457.95847 7
458.28326 9
458.69271 2
459.94457 5
460.86634 8
461.14332 3
465.54772 7
472.22224 7
477.81686 16
479.02617 11
479.29413 11
480.36623 3
481.3783 4
484.04418 16
485.47992 3
486.13469 8
488.35045 9
488.37805 4
491.43319 7
494.11911 6
494.39886 6
494.49197 26
496.85175 6
498.49987 7
500.86723 9
502.51693 2
502.65908 4
502.97688 5
503.48598 44
503.55471 3
504.59373 23
506.56323 20
507.33737 3
508.01901 11
512.44575 20
512.75796 20
512.83361 9
512.91288 9
513.52911 22
515.36472 2
516.6022 2
522.0923 7
527.00275 11
532.67516 5
535.0297 2
535.1197 5
536.69274 2
538.08169 21
538.18662 8
539.43709 3
539.63535 2
544.88549 5
548.53566 7
549.54644 14
551.8124 7
551.85018 48
551.94417 2
552.09154 5
552.15131 9
553.02406 10
553.56274 18
554.17699 6
556.82485 16
557.88274 3
562.82233 2
563.83943 13
568.70928 7
573.56274 18
573.95457 16
575.64536 5
586.69929 27
587.33581 8
591.68159 8
593.31365 9
593.47033 6
593.60767 14
594.13081 2
594.27955 4
594.61011 3
596.1062 13
597.53989 44
597.64453 2
603.23816 20
603.38516 2
606.09263 12
606.61594 3
610.95662 6
612.59276 3
615.9171 11
617.27573 55
617.3928 2
617.66372 7
619.86727 20
622.70916 4
624.95902 6
628.25692 12
631.10324 22
631.8438 2
634.89762 5
637.97727 15
639.56433 18
639.77794 13
641.40616 6
644.38497 10
646.2082 62
649.62617 20
650.23255 2
655.08402 11
656.27069 64
656.3584 4
656.4651 14
658.30801 12
659.15697 5
659.70795 5
661.46127 18
667.74464 24
668.94144 2
674.12093 5
675.11367 13
675.90917 8
676.08997 9
679.94639 4
687.27341 9
688.86945 13
689.24657 5
696.66541 19
699.9215 25
704.40654 8
705.03233 2
708.77724 7
709.75607 16
712.43812 11
713.85814 28
715.19705 11
715.35021 26
715.64225 7
719.32677 4
722.36535 3
723.68378 14
723.82448 20
727.1296 5
729.91885 8
732.91079 16
734.6978 6
736.80025 14
737.5549 39
741.02011 18
746.60007 4
750.4167 2
751.48147 6
754.38239 16
760.28584 19
760.91111 4
765.06274 5
765.19216 4
770.75133 6
772.57242 43
775.79006 6
782.10547 8
783.34911 4
785.50265 2
786.69256 12
786.81445 3
789.2594 10
790.80332 11
791.27775 4
792.99797 10
794.79801 9
794.83689 4
794.94145 9
800.13895 8
801.29989 6
801.39832 7
805.3502 4
805.86777 42
805.92951 5
805.97723 2
806.03105 2
806.05378 5
808.25713 64
810.44041 9
816.40604 2
817.6854 11
818.00428 15
823.98854 5
826.93256 22
829.10466 11
829.77282 35
829.8367 5
834.45124 26
835.43836 63
835.62324 3
835.83224 10
841.07655 29
842.03156 25
843.36156 9
844.08871 8
848.94554 13
854.95188 4
870.97854 5
877.92799 14
878.13622 25
880.1413 7
880.22831 15
880.78396 11
881.82111 18
882.85066 15
883.2111 10
887.35412 6
889.89526 3
890.27424 3
890.40616 14
894.13463 3
895.47705 21
896.39051 5
897.76672 3
902.37674 4
905.89626 5
906.90323 3
907.32427 9
912.59999 34
913.75936 34
915.04284 9
915.14374 5
915.53109 15
916.05006 3
917.08614 4
920.38974 30
921.47679 8
922.54304 8
923.43967 11
927.62625 30
938.24823 20
939.77177 4
941.77666 8
943.85842 47
948.35588 3
949.37833 2
949.72112 4
954.76379 5
956.11792 5
957.65844 16
959.58285 12
962.32173 4
968.74813 3
970.77277 7
970.82362 19
976.78117 4
976.87714 27
978.04575 9
978.30611 9
982.04532 2
983.0798 70
984.36184 5
985.46108 19
986.31954 33
988.67543 6
1002.02497 4
1002.85488 12
1003.80034 6
1006.25315 15
1007.1187 11
1015.1427 2
1017.88082 10
1026.97538 8
1032.55346 2
1034.87079 23
1044.63329 9
1047.0073 26
1047.20821 7
1048.15272 2
1052.1657 14
1053.35721 24
1055.9131 18
1061.69832 2
1062.37251 6
1064.08441 4
1069.90339 25
1083.27411 5
1083.72122 2
1092.88061 13
1094.80073 7
1095.68746 13
1099.38918 3
1101.93845 40
1106.05764 5
1111.18524 16
1115.60996 11
1115.87179 12
1116.81502 8
1117.918 30
1117.98818 4
1118.68129 8
1120.08201 14
1120.23352 13
1120.3369 11
1123.89588 5
1124.55453 2
1132.24074 16
1132.91886 6
1136.23214 7
1142.06479 3
1149.85745 6
1149.99964 15
1151.42656 12
1156.01704 8
1167.71465 24
1168.66669 15
1170.39111 5
1173.32392 13
1180.39231 4
1183.81994 4
1185.91216 17
1188.50883 13
1189.84028 8
1190.73789 13
1191.86383 5
1196.07213 13
1196.1685 8
1198.40323 3
1201.67849 11
1206.42933 6
1208.63082 7
1209.54985 15
1214.06189 9
1217.5436 3
1220.34518 29
1220.82102 9
1220.87203 42
1221.01621 2
1225.59651 8
1226.10961 6
1230.98639 7
1232.37741 8
1234.24553 13
1235.03991 8
1235.113 2
1237.17276 4
1241.49978 6
1241.78145 9
1254.24853 7
1257.02057 4
1259.88349 5
1261.95628 14
1263.17729 25
1263.50024 4
1263.71833 4
1269.03111 9
1273.38472 17
1275.94159 5
1280.04746 19
1286.31832 3
1296.83039 2
1301.1909 14
1305.06612 9
1314.21557 17
1314.86984 2
1316.87676 3
1317.46946 18
1317.82091 4
1325.89313 6
1326.27835 8
1326.86308 67
1327.03943 3
1330.68854 11
1330.98296 25
1331.10702 4
1336.91046 3
1342.44625 7
1344.92954 9
1347.87243 15
1352.20797 19
1354.89826 10
1355.50998 11
1355.64982 3
1356.07343 5
1360.35305 3
1362.64947 9
1365.72851 14
1370.53243 39
1373.52762 5
1382.2071 48
1382.32664 2
1384.92619 7
1386.67817 2
1397.65353 11
1397.73118 11
1401.04755 21
1401.49035 14
1402.43175 8
1404.0948 4
1405.45007 3
1417.8995 11
1423.70528 10
1429.91502 18
1430.50598 7
1434.15992 11
1434.5887 2
1436.15627 12
1439.99021 5
1448.10767 21
1448.44931 9
1449.21788 12
1451.2654 10
1455.56744 23
1455.74296 14
1455.88394 3
1459.59042 2
1466.0186 7
1473.25433 20
1477.99953 6
1484.73226 8
1488.14918 8
1491.90841 7
1496.45104 7
1502.94099 9
1505.55759 16
1513.18951 4
1514.63648 6
1516.98167 10
1520.43055 26
1520.55213 2
1522.57239 16
1525.87704 14
1531.7965 5
1534.30443 10
1535.74852 12
1535.80893 2
1538.54768 33
1540.61905 5
1544.46307 4
1551.7574 5
1552.08025 5
1553.28207 3
1557.03238 11
1558.25404 21
1558.9319 8
1561.32445 3
1562.03762 5
1567.38998 3
1573.49614 57
1573.60523 4
1573.6769 2
1577.29954 2
1579.73427 10
1580.42268 6
1580.86414 7
1585.36015 4
1587.75465 2
1590.8038 20
1590.94407 6
1597.10863 15
1597.30385 13
1598.03865 9
1601.73779 5
1603.72829 11
1607.43909 23
1608.51795 4
1609.72115 7
1610.87904 12
1612.00956 9
1618.96917 18
1624.13521 4
1630.14315 21
1635.8844 11
1636.59827 11
1638.98002 13
1639.41736 11
1649.31731 36
1649.44101 2
1655.49253 14
1659.19829 11
1660.41946 36
1660.54445 3
1667.49201 3
1667.97652 4
1669.43092 6
1676.60893 33
1677.45263 19
1677.53368 10
1678.21706 10
1678.47428 5
1678.54457 5
1680.98037 10
1683.50386 6
1684.10317 19
1684.47938 2
1690.93148 7
1691.19092 18
1693.41982 9
1698.38454 5

NAME: 2-3-Dihydroxybenzoic acid
PRECURSORMZ: 153.01939
PRECURSORTYPE: [M-H]-
FORMULA: C7H6O4
RETENTIONTIME: 2.338
IONMODE: Negative
COMMENT: Spectra extracted with MS2extract R package
INCHIKEY: GLDQAMYCGOIJDV-UHFFFAOYSA-N
SMILES: C1=CC(=C(C(=C1)O)O)C(=O)O
CCS: 
COLLISIONENERGY: 20eV
INSTRUMENTTYPE: ESI-QTOF
Num Peaks: 3
108.022 42
109.03117 100
153.01956 2

NAME: 2-3-Dihydroxybenzoic acid
PRECURSORMZ: 153.01939
PRECURSORTYPE: [M-H]-
FORMULA: C7H6O4
RETENTIONTIME: 2.335
IONMODE: Negative
COMMENT: Spectra extracted with MS2extract R package
INCHIKEY: GLDQAMYCGOIJDV-UHFFFAOYSA-N
SMILES: C1=CC(=C(C(=C1)O)O)C(=O)O
CCS: 
COLLISIONENERGY: 40eV
INSTRUMENTTYPE: ESI-QTOF
Num Peaks: 2
108.02195 100
109.02995 13

NAME: 2-5-Dihydroxybenzoic acid
PRECURSORMZ: 153.01939
PRECURSORTYPE: [M-H]-
FORMULA: C7H6O4
RETENTIONTIME: 2.125
IONMODE: Negative
COMMENT: Spectra extracted with MS2extract R package
INCHIKEY: WXTMDXOMEHJXQO-UHFFFAOYSA-N
SMILES: C1=CC(=C(C=C1O)C(=O)O)O
CCS: 
COLLISIONENERGY: 20eV
INSTRUMENTTYPE: ESI-QTOF
Num Peaks: 2
108.0241 100
109.02982 53

NAME: 2-5-Dihydroxybenzoic acid
PRECURSORMZ: 153.01939
PRECURSORTYPE: [M-H]-
FORMULA: C7H6O4
RETENTIONTIME: 2.127
IONMODE: Negative
COMMENT: Spectra extracted with MS2extract R package
INCHIKEY: WXTMDXOMEHJXQO-UHFFFAOYSA-N
SMILES: C1=CC(=C(C=C1O)C(=O)O)O
CCS: 
COLLISIONENERGY: 40eV
INSTRUMENTTYPE: ESI-QTOF
Num Peaks: 1
108.02161 100

NAME: 2-6-Dihydroxybenzoic acid
PRECURSORMZ: 153.01939
PRECURSORTYPE: [M-H]-
FORMULA: C7H6O4
RETENTIONTIME: 2.176
IONMODE: Negative
COMMENT: Spectra extracted with MS2extract R package
INCHIKEY: AKEUNCKRJATALU-UHFFFAOYSA-N
SMILES: C1=CC(=C(C(=C1)O)C(=O)O)O
CCS: 
COLLISIONENERGY: 20eV
INSTRUMENTTYPE: ESI-QTOF
Num Peaks: 3
109.0308 100
135.00915 29
153.01961 7

NAME: 2-6-Dihydroxybenzoic acid
PRECURSORMZ: 153.01939
PRECURSORTYPE: [M-H]-
FORMULA: C7H6O4
RETENTIONTIME: 2.175
IONMODE: Negative
COMMENT: Spectra extracted with MS2extract R package
INCHIKEY: AKEUNCKRJATALU-UHFFFAOYSA-N
SMILES: C1=CC(=C(C(=C1)O)C(=O)O)O
CCS: 
COLLISIONENERGY: 40eV
INSTRUMENTTYPE: ESI-QTOF
Num Peaks: 4
107.01314 36
108.01977 2
109.02869 100
135.00784 15

NAME: 2,4,6-Trihydroxybenzaldehyde
PRECURSORMZ: 153.01939
PRECURSORTYPE: [M-H]-
FORMULA: C7H6O4
RETENTIONTIME: 2.594
IONMODE: Negative
COMMENT: Spectra extracted with MS2extract R package
INCHIKEY: CRBZVDLXAIFERF-UHFFFAOYSA-N
SMILES: COC1=CC(=C(C(=C1)OC)C=O)OC
CCS: 
COLLISIONENERGY: 20eV
INSTRUMENTTYPE: ESI-QTOF
Num Peaks: 6
107.01388 87
109.02967 8
111.00875 3
125.02468 13
151.00363 100
153.01912 24

NAME: 2,4,6-Trihydroxybenzaldehyde
PRECURSORMZ: 153.01939
PRECURSORTYPE: [M-H]-
FORMULA: C7H6O4
RETENTIONTIME: 2.59
IONMODE: Negative
COMMENT: Spectra extracted with MS2extract R package
INCHIKEY: CRBZVDLXAIFERF-UHFFFAOYSA-N
SMILES: COC1=CC(=C(C(=C1)OC)C=O)OC
CCS: 
COLLISIONENERGY: 40eV
INSTRUMENTTYPE: ESI-QTOF
Num Peaks: 4
107.01364 100
108.02234 2
109.02989 5
151.00412 8

NAME: 3-4-Dihydroxybenzoic acid
PRECURSORMZ: 153.01939
PRECURSORTYPE: [M-H]-
FORMULA: C7H6O4
RETENTIONTIME: 1.842
IONMODE: Negative
COMMENT: Spectra extracted with MS2extract R package
INCHIKEY: YQUVCSBJEUQKSH-UHFFFAOYSA-N
SMILES: C1=CC(=C(C=C1C(=O)O)O)O
CCS: 
COLLISIONENERGY: 20eV
INSTRUMENTTYPE: ESI-QTOF
Num Peaks: 2
108.02331 43
109.03292 100

NAME: 3-4-Dihydroxybenzoic acid
PRECURSORMZ: 153.01939
PRECURSORTYPE: [M-H]-
FORMULA: C7H6O4
RETENTIONTIME: 1.841
IONMODE: Negative
COMMENT: Spectra extracted with MS2extract R package
INCHIKEY: YQUVCSBJEUQKSH-UHFFFAOYSA-N
SMILES: C1=CC(=C(C=C1C(=O)O)O)O
CCS: 
COLLISIONENERGY: 40eV
INSTRUMENTTYPE: ESI-QTOF
Num Peaks: 2
108.02093 100
109.02867 24

NAME: 3-Hydroxybenzaldehyde
PRECURSORMZ: 121.0296
PRECURSORTYPE: [M-H]-
FORMULA: C7H6O2
RETENTIONTIME: 2.591
IONMODE: Negative
COMMENT: Spectra extracted with MS2extract R package
INCHIKEY: IAVREABSGIHHMO-UHFFFAOYSA-N
SMILES: C1=CC(=CC(=C1)O)C=O
CCS: 
COLLISIONENERGY: 20eV
INSTRUMENTTYPE: ESI-QTOF
Num Peaks: 2
120.02179 4
121.02999 100

NAME: 3-Hydroxybenzaldehyde
PRECURSORMZ: 121.0296
PRECURSORTYPE: [M-H]-
FORMULA: C7H6O2
RETENTIONTIME: 2.587
IONMODE: Negative
COMMENT: Spectra extracted with MS2extract R package
INCHIKEY: IAVREABSGIHHMO-UHFFFAOYSA-N
SMILES: C1=CC(=CC(=C1)O)C=O
CCS: 
COLLISIONENERGY: 40eV
INSTRUMENTTYPE: ESI-QTOF
Num Peaks: 3
103.01881 3
120.02275 10
121.02976 100

NAME: 3-O-methyl Quercetin
PRECURSORMZ: 315.05099
PRECURSORTYPE: [M-H]-
FORMULA: C16H12O7
RETENTIONTIME: 3.733
IONMODE: Negative
COMMENT: Spectra extracted with MS2extract R package
INCHIKEY: WEPBGSIAWZTEJR-UHFFFAOYSA-N
SMILES: OC1=CC(O)=C2C(OC(C3=CC=C(O)C(O)=C3)=C(OC)C2=O)=C1
CCS: 
COLLISIONENERGY: 20eV
INSTRUMENTTYPE: ESI-QTOF
Num Peaks: 8
243.03008 4
254.02219 2
255.03061 14
271.0263 33
272.03277 2
300.02985 100
300.11896 2
315.05135 3

NAME: 3-O-methyl Quercetin
PRECURSORMZ: 315.05099
PRECURSORTYPE: [M-H]-
FORMULA: C16H12O7
RETENTIONTIME: 3.729
IONMODE: Negative
COMMENT: Spectra extracted with MS2extract R package
INCHIKEY: WEPBGSIAWZTEJR-UHFFFAOYSA-N
SMILES: OC1=CC(O)=C2C(OC(C3=CC=C(O)C(O)=C3)=C(OC)C2=O)=C1
CCS: 
COLLISIONENERGY: 40eV
INSTRUMENTTYPE: ESI-QTOF
Num Peaks: 34
65.00312 3
107.01383 6
108.02165 13
120.02162 3
135.00885 4
147.0089 2
148.01677 12
151.00364 2
163.0038 3
164.01178 4
171.04522 3
183.04533 3
187.04025 4
198.03223 3
199.04041 10
201.01954 5
203.03511 3
211.04028 4
213.01962 2
215.03521 9
226.02725 4
227.03526 13
229.01419 3
242.0224 2
243.03056 40
243.03927 2
243.06625 2
254.02198 2
255.03044 32
255.03942 2
271.02622 100
271.06348 4
299.0198 3
300.02776 2

NAME: 3-O-methyl Quercetin
PRECURSORMZ: 315.05099
PRECURSORTYPE: [M-H]-
FORMULA: C16H12O7
RETENTIONTIME: 3.729
IONMODE: Negative
COMMENT: Spectra extracted with MS2extract R package
INCHIKEY: WEPBGSIAWZTEJR-UHFFFAOYSA-N
SMILES: OC1=CC(O)=C2C(OC(C3=CC=C(O)C(O)=C3)=C(OC)C2=O)=C1
CCS: 
COLLISIONENERGY: 60eV
INSTRUMENTTYPE: ESI-QTOF
Num Peaks: 152
51.0237 6
63.0237 36
63.02946 2
65.00293 96
65.00864 6
65.03927 4
67.01867 4
68.99773 5
75.02385 2
77.03962 2
78.01118 2
79.01861 5
80.02669 4
83.01349 11
89.00277 2
89.03934 9
91.01866 24
91.05491 2
92.02639 3
93.03441 4
95.0138 8
96.02168 3
101.03941 13
103.01887 2
103.05496 3
107.0137 78
107.02101 5
108.02149 93
108.02889 6
109.02925 10
113.03945 5
114.04764 2
115.0552 24
115.06315 2
116.02716 2
117.0344 26
117.04166 2
119.01364 19
119.02097 2
119.04982 4
120.02151 23
120.02983 2
124.01643 2
125.03956 10
127.05502 19
127.06335 2
128.02608 2
129.03445 26
129.04268 2
130.04197 6
131.05011 10
132.02126 4
133.02927 27
133.03764 2
135.00867 17
136.01652 2
137.0242 2
139.05561 6
141.03448 24
141.04344 2
142.04226 6
143.05013 80
143.05895 6
144.02151 3
145.0294 100
145.03778 7
146.03722 5
147.00854 21
147.0176 2
147.04544 6
148.01654 39
148.02502 3
151.00337 7
153.03433 20
153.04229 2
154.04222 20
154.05138 2
155.05 21
155.05827 2
156.02168 5
157.02945 33
157.03848 3
158.03728 13
159.04518 42
159.05462 3
160.0168 2
161.02446 4
163.00349 21
163.01292 2
164.01139 3
167.04995 5
169.02931 39
169.03802 4
170.03723 17
171.04507 71
171.05395 6
172.01683 7
173.02429 47
173.03348 4
174.03166 11
175.03979 15
175.04905 2
181.02888 8
182.03746 33
182.04607 2
183.04509 36
183.05502 3
184.01653 5
185.02427 24
185.03392 2
186.03201 18
186.04229 2
187.04008 66
187.04947 5
190.99807 2
197.02458 45
197.03478 4
198.0324 47
198.04235 4
199.04017 81
199.04988 7
200.01144 10
201.01933 63
201.02905 5
202.02707 10
203.03491 17
209.0243 3
210.03269 8
211.04015 14
213.01948 19
214.02704 24
214.0377 3
215.03495 62
215.04504 6
225.01917 10
226.02701 28
226.0372 3
227.03508 39
227.04592 3
229.0142 21
229.02469 2
241.01368 6
242.02198 42
242.03233 4
243.02991 39
243.04093 4
253.01453 2
254.02109 2
255.02988 10
270.01695 2
271.02477 28
271.03679 2

NAME: 3-O-methyl Quercetin
PRECURSORMZ: 315.05099
PRECURSORTYPE: [M-H]-
FORMULA: C16H12O7
RETENTIONTIME: 3.734
IONMODE: Negative
COMMENT: Spectra extracted with MS2extract R package
INCHIKEY: WEPBGSIAWZTEJR-UHFFFAOYSA-N
SMILES: OC1=CC(O)=C2C(OC(C3=CC=C(O)C(O)=C3)=C(OC)C2=O)=C1
CCS: 
COLLISIONENERGY: 80eV
INSTRUMENTTYPE: ESI-QTOF
Num Peaks: 92
51.02363 11
63.02367 35
63.02942 2
65.00293 100
65.00855 6
65.03934 3
67.01851 4
68.99806 8
75.02368 6
77.03951 2
79.01876 4
83.01343 3
88.03161 2
89.00311 3
89.0394 23
91.01857 15
93.03401 2
95.01368 6
99.02371 2
101.03941 13
103.01876 2
103.05501 3
104.02681 2
105.03408 3
107.01365 19
108.02142 23
108.02845 2
109.02907 5
113.03945 12
114.04736 2
115.01857 3
115.05534 13
116.02642 3
117.03441 29
117.04255 2
119.01361 16
119.02158 2
119.0499 2
120.02148 2
125.03953 8
127.05511 2
128.02687 4
129.0343 20
130.04227 6
131.05011 4
132.0215 9
133.02914 15
135.00874 4
141.03435 22
141.04309 2
142.04236 4
143.01415 2
143.0502 14
144.02219 5
145.02946 46
145.03772 4
146.03747 2
147.00881 4
148.01678 4
153.0341 3
154.04203 7
155.05001 3
156.0214 5
157.02932 12
158.03724 11
159.04508 8
163.0037 3
168.02091 2
169.02934 33
169.03843 3
170.03676 6
171.00821 3
171.04535 6
172.01684 3
173.02432 8
174.03215 3
182.0369 10
183.04481 2
185.02449 10
186.03227 7
187.03989 6
197.0243 22
197.03492 2
198.03277 7
199.04049 3
201.01942 4
213.01927 13
214.02653 3
225.01888 2
226.02715 2
241.01378 2
242.02215 2

NAME: 4-Hydroxybenzaldehyde
PRECURSORMZ: 121.0296
PRECURSORTYPE: [M-H]-
FORMULA: C7H6O2
RETENTIONTIME: 2.459
IONMODE: Negative
COMMENT: Spectra extracted with MS2extract R package
INCHIKEY: RGHHSNMVTDWUBI-UHFFFAOYSA-N
SMILES: C1=CC(=CC=C1C=O)O
CCS: 
COLLISIONENERGY: 20eV
INSTRUMENTTYPE: ESI-QTOF
Num Peaks: 2
120.02154 29
121.03144 100

NAME: 4-Hydroxybenzaldehyde
PRECURSORMZ: 121.0296
PRECURSORTYPE: [M-H]-
FORMULA: C7H6O2
RETENTIONTIME: 2.429
IONMODE: Negative
COMMENT: Spectra extracted with MS2extract R package
INCHIKEY: RGHHSNMVTDWUBI-UHFFFAOYSA-N
SMILES: C1=CC(=CC=C1C=O)O
CCS: 
COLLISIONENERGY: 40eV
INSTRUMENTTYPE: ESI-QTOF
Num Peaks: 3
103.01861 2
120.02183 44
121.02954 100

NAME: Apigenin
PRECURSORMZ: 269.0455
PRECURSORTYPE: [M-H]-
FORMULA: C15H10O5
RETENTIONTIME: 3.924
IONMODE: Negative
COMMENT: Spectra extracted with MS2extract R package
INCHIKEY: KZNIFHPLKGYRTM-UHFFFAOYSA-N
SMILES: Oc1ccc(cc1)c1cc(=O)c2c(O)cc(O)cc2o1
CCS: 
COLLISIONENERGY: 20eV
INSTRUMENTTYPE: ESI-QTOF
Num Peaks: 12
65.0034 2
107.01412 5
117.0351 18
149.02502 13
151.00432 17
159.04557 3
181.06629 2
183.04553 2
201.05631 4
225.05633 8
227.03557 3
269.04765 100

NAME: Apigenin
PRECURSORMZ: 269.0455
PRECURSORTYPE: [M-H]-
FORMULA: C15H10O5
RETENTIONTIME: 3.917
IONMODE: Negative
COMMENT: Spectra extracted with MS2extract R package
INCHIKEY: KZNIFHPLKGYRTM-UHFFFAOYSA-N
SMILES: Oc1ccc(cc1)c1cc(=O)c2c(O)cc(O)cc2o1
CCS: 
COLLISIONENERGY: 40eV
INSTRUMENTTYPE: ESI-QTOF
Num Peaks: 13
63.02376 9
65.00309 19
79.01877 2
83.0137 6
93.0345 2
105.03439 2
107.01391 8
117.03515 100
117.06006 4
121.0295 5
149.02474 3
151.00393 3
159.04535 2

NAME: Apigenin
PRECURSORMZ: 269.0455
PRECURSORTYPE: [M-H]-
FORMULA: C15H10O5
RETENTIONTIME: 3.916
IONMODE: Negative
COMMENT: Spectra extracted with MS2extract R package
INCHIKEY: KZNIFHPLKGYRTM-UHFFFAOYSA-N
SMILES: Oc1ccc(cc1)c1cc(=O)c2c(O)cc(O)cc2o1
CCS: 
COLLISIONENERGY: 60eV
INSTRUMENTTYPE: ESI-QTOF
Num Peaks: 10
51.02371 2
63.02379 11
65.00309 32
65.00892 2
79.0187 3
83.01371 2
89.03952 13
116.02664 4
117.03476 100
117.04132 4

NAME: Apigenin
PRECURSORMZ: 269.0455
PRECURSORTYPE: [M-H]-
FORMULA: C15H10O5
RETENTIONTIME: 3.901
IONMODE: Negative
COMMENT: Spectra extracted with MS2extract R package
INCHIKEY: KZNIFHPLKGYRTM-UHFFFAOYSA-N
SMILES: Oc1ccc(cc1)c1cc(=O)c2c(O)cc(O)cc2o1
CCS: 
COLLISIONENERGY: 80eV
INSTRUMENTTYPE: ESI-QTOF
Num Peaks: 23
51.02369 4
55.01856 2
61.00816 3
62.01605 3
63.0238 29
63.02942 2
63.9949 3
65.00313 94
65.0088 8
67.01856 4
73.00809 2
79.01865 3
83.0139 2
88.03177 23
88.03865 2
89.00309 3
89.03963 59
89.04625 4
91.0187 7
116.02673 26
116.0348 2
117.03457 100
117.04224 7

NAME: Ascorbic acid
PRECURSORMZ: 175.02431
PRECURSORTYPE: [M-H]-
FORMULA: C6H8O6
RETENTIONTIME: 0.329
IONMODE: Negative
COMMENT: Spectra extracted with MS2extract R package
INCHIKEY: CIWBSHSKHKDKBQ-JLAZNSOCSA-N
SMILES: C(C(C1C(=C(C(=O)O1)O)O)O)O
CCS: 
COLLISIONENERGY: 20eV
INSTRUMENTTYPE: ESI-QTOF
Num Peaks: 469
100.13602 5
100.93071 14
100.97912 2
101.01393 7
102.96847 5
104.19899 7
104.53308 2
104.58915 2
105.25526 5
107.84404 3
111.00932 9
111.58425 7
112.94919 4
112.98307 4
113.02125 19
114.59897 4
114.92241 10
115.00255 100
115.05806 3
115.30242 3
115.37154 2
115.75095 2
116.21635 2
117.01759 14
117.74408 5
118.24327 2
118.71628 2
118.89543 8
118.9547 4
122.35909 11
124.98869 19
125.99258 9
126.99844 22
127.24703 2
128.07227 2
130.03869 2
130.87563 4
130.89933 9
130.96462 20
130.98726 10
132.51712 3
135.04238 3
138.8033 2
138.92679 3
142.99559 5
143.42718 2
143.47419 14
143.97136 3
144.95939 2
145.0018 14
146.92936 2
147.62183 4
148.43339 3
148.91267 3
148.92547 2
150.84292 5
151.34066 3
154.20294 2
154.77772 3
154.8636 2
156.33499 3
158.21814 2
160.17056 2
162.42692 3
163.83893 2
165.73152 2
168.47923 13
169.67863 2
170.30681 4
172.31771 2
174.82646 55
174.85659 21
175.31033 2
175.73001 3
175.8416 2
176.8147 2
177.37311 3
178.85443 2
179.32434 2
180.69581 3
183.46944 3
184.11516 2
188.64461 2
189.20522 2
189.3023 2
190.90443 2
191.11472 2
195.76893 3
200.80447 2
205.86553 2
206.33284 2
207.24434 2
207.65097 9
208.31363 4
209.06368 6
209.12012 3
212.46386 2
214.6296 4
215.69658 4
217.55688 2
218.25294 2
224.93714 2
233.298 2
235.02246 2
235.25699 2
235.31035 2
241.97785 5
243.62326 2
244.06851 4
246.41917 2
249.1896 3
249.94387 11
254.43652 2
255.89191 2
260.23016 3
271.04322 2
273.06749 2
275.91325 2
281.73105 8
287.40935 11
291.08605 2
291.34717 7
292.11956 2
296.29953 2
296.86477 3
298.34466 7
299.84755 3
303.11966 5
303.30213 3
306.05258 4
307.38462 2
308.30086 2
312.23147 2
313.24432 2
313.99743 3
318.23842 9
318.43549 6
326.42244 4
327.23201 5
327.25601 2
328.20897 4
328.81163 2
329.2759 2
331.40801 3
336.28067 3
339.36716 2
347.3972 7
351.62085 3
354.01222 4
354.6931 2
364.88016 4
365.71051 3
367.45526 5
368.80292 3
371.79174 2
372.77899 2
376.21725 2
382.6376 3
386.9151 3
394.6568 5
395.81052 4
396.90059 2
397.6841 2
398.44739 3
401.1101 3
402.97773 2
405.78898 2
413.17652 3
413.27584 2
414.46543 3
418.53794 2
425.61597 8
426.87296 5
427.45346 2
433.77407 3
433.82455 4
436.86518 6
437.5038 2
437.60571 2
449.29539 2
449.79826 2
455.45109 5
460.02567 3
461.1303 3
465.22673 4
467.31023 2
472.14917 2
478.51451 9
478.6759 4
480.87069 3
483.05163 2
486.79435 2
489.63951 2
494.03019 2
497.75944 4
500.09506 2
500.80355 5
501.79808 2
510.73324 2
511.80242 2
526.45758 3
526.68144 2
530.79534 11
535.22184 3
535.90626 4
543.83989 2
545.50098 3
546.04601 2
559.81411 3
561.02361 2
563.22188 3
565.5554 3
565.78432 2
569.73103 9
574.0385 10
575.42852 2
577.89896 2
583.96183 6
585.31168 2
585.36208 3
585.59942 3
589.11865 2
591.61593 3
593.05314 5
595.79718 2
599.59694 2
599.90662 4
604.15079 3
607.41221 3
607.80141 2
610.62027 5
614.66477 3
614.81261 3
623.31768 2
625.55407 3
630.33221 2
632.14064 2
633.75031 2
637.4104 6
639.65336 2
640.8983 12
642.0453 2
642.81875 9
643.69767 3
647.94768 5
652.95935 3
656.21584 4
662.66322 3
668.10363 3
671.30781 4
680.07319 3
680.79331 4
690.0045 6
693.13272 15
693.18421 2
693.30439 6
696.39258 4
699.59523 2
699.70674 3
701.27758 3
703.3024 3
706.95182 6
738.3294 6
743.88126 8
746.13019 3
748.63786 3
749.16186 12
756.50305 7
767.96158 7
768.85871 4
769.21297 3
772.28762 2
776.69129 2
777.61414 3
780.42515 2
782.19729 11
783.39043 2
789.08635 14
789.35864 2
790.27521 3
793.09197 4
797.07453 2
797.52564 3
799.5592 2
815.18246 2
815.40885 5
817.03543 2
822.33269 5
827.82968 3
836.29413 7
846.84047 8
847.42658 4
850.08256 4
855.14892 10
857.99529 3
861.37134 3
876.25009 2
877.4857 5
891.8209 2
897.57137 2
902.11183 2
903.52108 2
905.05586 3
915.4894 2
920.76038 4
921.81542 4
924.778 4
926.81268 3
933.51601 2
937.55196 6
941.69219 2
942.98385 2
944.54332 2
945.39996 5
950.74181 5
953.96289 5
967.97717 2
979.48188 6
979.78766 3
993.72207 3
995.40292 6
997.95042 4
999.53047 6
1007.36036 2
1010.6299 2
1013.02947 2
1019.02529 4
1024.69435 4
1026.24126 5
1032.00206 2
1033.75179 3
1034.16809 10
1035.56561 2
1044.57871 3
1057.51961 3
1068.0708 2
1071.31326 2
1082.37893 3
1086.98482 4
1088.46033 2
1089.84412 2
1091.44869 2
1096.1828 2
1103.72817 2
1106.68406 2
1113.53759 4
1116.50181 2
1126.64511 14
1126.98585 2
1127.90531 2
1138.88603 6
1139.97332 2
1145.94878 2
1147.84654 6
1149.5891 5
1158.73543 8
1159.80893 2
1166.02663 14
1180.94644 4
1186.53009 5
1192.36633 3
1195.81841 2
1198.51408 2
1205.91843 2
1217.84934 2
1222.07548 2
1224.83613 2
1239.98332 3
1245.06974 3
1257.49166 2
1265.33431 2
1270.61663 2
1270.73119 3
1272.77821 3
1281.73615 2
1283.1544 2
1284.52852 2
1286.92196 5
1290.02732 4
1301.24073 2
1304.08932 3
1304.36867 5
1304.91618 5
1305.35665 3
1310.99158 2
1325.24409 4
1326.11698 6
1328.94056 3
1329.14441 3
1331.90918 3
1333.39517 5
1346.10781 2
1352.96919 2
1359.36898 3
1361.20329 2
1366.11332 14
1369.66949 5
1370.97031 3
1378.2008 2
1380.53693 6
1389.2337 3
1401.43315 6
1401.81802 7
1403.56237 3
1404.52923 2
1408.11714 7
1412.01352 7
1418.53195 3
1422.50182 3
1428.26441 2
1432.55138 2
1438.91445 2
1456.77617 3
1463.843 2
1464.18706 3
1467.69315 9
1471.0487 4
1480.46044 3
1482.07698 2
1482.25813 6
1483.66268 2
1488.36864 2
1489.89561 2
1493.26839 3
1495.34672 2
1505.41226 3
1507.36902 3
1509.1843 2
1510.77247 2
1516.96661 3
1517.87628 3
1525.47172 3
1527.224 2
1529.8528 2
1534.46061 3
1540.05242 4
1542.71535 8
1542.78635 3
1544.10538 9
1549.57457 2
1550.78341 2
1552.51957 4
1563.97925 3
1567.39059 2
1576.20598 11
1582.23498 3
1582.88839 8
1593.53064 4
1595.39049 3
1597.8024 4
1599.13056 2
1607.44116 3
1617.26672 2
1623.43401 3
1623.56667 2
1623.63544 3
1626.81659 2
1636.51949 4
1642.57586 2
1643.65066 2
1646.04514 6
1663.62525 4
1666.91338 3
1669.81322 3
1679.40795 2
1679.63325 2
1684.25884 2
1687.81711 3
1692.89963 10

NAME: Ascorbic acid
PRECURSORMZ: 175.02431
PRECURSORTYPE: [M-H]-
FORMULA: C6H8O6
RETENTIONTIME: 0.33
IONMODE: Negative
COMMENT: Spectra extracted with MS2extract R package
INCHIKEY: CIWBSHSKHKDKBQ-JLAZNSOCSA-N
SMILES: C(C(C1C(=C(C(=O)O1)O)O)O)O
CCS: 
COLLISIONENERGY: 40eV
INSTRUMENTTYPE: ESI-QTOF
Num Peaks: 718
101.02226 3
102.17179 3
102.8564 5
103.43573 2
105.89891 2
107.10643 2
109.99842 8
110.4687 2
111.0078 11
111.52084 3
113.14221 2
113.37491 3
115.00175 100
115.0427 2
115.76499 2
115.78444 2
116.12681 2
116.54069 2
116.58916 7
117.90284 2
118.57175 2
118.78685 2
120.10247 2
125.6147 2
126.13062 2
126.34467 3
126.66098 5
127.00131 4
127.45507 4
127.76126 2
130.56009 6
132.13976 2
132.24806 2
135.71512 2
136.993 2
137.27036 2
137.39143 2
137.73725 3
137.77054 4
137.85646 2
138.60629 2
139.65182 2
141.86971 10
144.48475 2
144.56271 2
148.98442 2
150.14135 5
151.91566 2
153.09016 2
153.52504 2
154.34099 2
154.60813 2
158.06511 3
163.05151 2
164.97022 2
165.61509 3
166.14762 3
166.20233 2
167.54919 2
168.87458 2
170.03494 4
170.45935 2
171.37444 3
172.861 4
172.95729 2
173.82625 2
174.69336 2
174.71606 2
174.85707 2
175.71546 2
176.3921 2
178.366 2
179.82388 2
180.84658 3
184.68127 4
186.12122 2
186.28358 5
186.39554 2
187.9183 2
191.73932 3
192.51207 2
192.71368 2
194.68993 3
197.88945 3
198.02728 6
198.06414 2
198.53662 7
198.98549 2
200.3742 2
201.47558 2
202.1224 2
202.72989 2
204.08189 2
205.1935 3
205.33334 2
205.87553 2
207.12477 3
207.68554 2
207.89256 2
210.77999 4
212.3112 2
213.09941 2
213.16391 2
217.12719 6
217.62508 2
217.88125 2
217.93566 2
218.32468 2
220.10177 3
221.71543 2
223.14625 3
224.30036 4
228.19262 2
229.26456 3
230.05483 2
232.9206 2
234.93705 2
237.15756 2
239.19295 3
244.52468 2
245.82797 2
250.82196 5
251.1205 2
251.20369 3
252.14088 2
253.12353 2
253.26685 3
253.67881 3
253.84472 5
254.48048 2
254.87984 2
256.49789 2
256.92726 5
257.70716 3
263.28156 2
263.55672 2
263.57761 2
264.46851 2
265.80994 3
266.21587 2
266.28775 3
266.48542 4
267.31817 2
267.76776 2
269.91182 2
270.53456 3
272.19068 4
272.29664 5
275.99096 2
276.14392 2
276.51517 4
277.99837 2
279.57229 2
281.7884 2
281.97583 2
282.8984 2
283.30669 3
283.83351 4
284.15239 2
284.24651 2
284.64146 2
285.56602 2
286.43328 2
293.11847 3
293.35132 4
293.63037 2
295.82107 2
296.48434 3
296.95705 2
297.75417 2
299.92288 2
300.08933 2
300.38929 2
301.05246 3
306.79823 2
308.5247 2
309.89635 2
311.82474 3
314.95427 5
315.92133 2
315.9818 3
316.76473 2
318.8228 2
321.43991 2
322.14353 2
322.33518 5
324.23107 2
324.81319 3
325.64577 2
326.47395 2
326.6613 5
326.7015 2
330.16336 2
331.50564 2
331.58787 2
332.00978 2
333.03318 2
334.12284 2
336.53113 2
340.74045 2
340.97639 2
341.31689 2
342.66388 3
349.07619 2
349.84185 2
357.43533 5
360.28498 3
361.68441 2
361.81101 2
364.0246 2
366.48972 2
368.46734 4
369.79084 2
370.62714 2
371.22549 3
372.00967 2
373.88754 2
374.60442 2
374.81768 2
377.17598 2
377.25408 2
379.25196 4
379.27892 2
379.32452 2
382.58073 2
385.00168 3
385.32166 2
385.92376 2
386.46155 2
387.51586 2
390.28593 5
391.83329 2
392.20689 2
395.83543 2
396.38186 2
399.06641 6
404.26507 4
404.35538 3
407.56397 4
408.20136 2
408.5488 2
408.89699 2
419.14025 2
422.56367 2
422.80337 3
426.71983 2
426.81337 2
426.95691 2
431.63101 2
436.37652 2
436.79887 2
437.29338 2
442.75675 2
445.96601 2
449.01845 2
453.83344 2
456.84148 4
458.63366 2
459.58204 2
459.62121 2
461.91433 2
462.4309 2
466.5874 7
466.83784 2
467.08462 3
467.10735 2
467.30027 3
468.30321 3
468.83927 2
473.51131 2
473.87522 2
475.89304 2
477.31402 2
478.35866 2
480.34726 6
481.06728 2
482.20776 2
483.48712 2
483.74251 2
483.95422 2
484.25246 2
488.39388 3
489.88579 2
497.44434 4
497.76946 5
503.18003 2
504.94929 6
505.90226 6
506.10246 5
508.32372 3
509.38242 2
510.08391 4
512.46788 2
513.52289 2
514.30765 2
520.40717 3
521.69674 3
524.18928 6
525.50998 2
526.01736 2
531.07293 2
531.78814 3
531.84711 3
533.00884 2
535.60036 3
538.49513 2
539.23185 2
545.7886 4
547.95117 2
551.95451 2
555.49544 5
561.30848 8
561.67879 5
563.70902 2
567.63767 5
574.29535 2
575.52799 2
576.26999 3
576.73126 3
583.58999 6
585.24158 2
588.05089 2
588.89873 2
591.56685 2
609.8976 3
616.38711 7
618.76079 2
619.8475 2
620.22659 2
621.25512 2
621.91736 2
622.98292 3
623.73305 2
627.39334 6
628.82559 3
629.69735 3
631.54691 2
633.85668 2
634.85375 2
637.43203 2
638.57652 5
640.28675 5
642.62681 2
643.90243 2
646.21019 2
646.91004 3
647.63338 3
651.51536 2
651.70566 2
656.31695 2
657.36657 3
658.42366 2
660.25952 2
663.69892 3
663.75332 2
668.23996 2
668.29314 5
669.42541 2
671.17155 3
672.66923 2
678.46162 2
680.10371 2
683.10481 2
687.89345 2
690.50698 2
692.61658 2
693.73739 2
694.02557 2
694.07736 2
695.62716 2
697.43844 2
698.97724 2
701.66896 2
705.22373 2
705.89535 3
708.42139 6
708.85221 2
709.68581 2
710.69398 3
714.47345 2
717.01049 2
718.58759 2
723.56219 2
723.68357 2
723.97868 2
725.64676 2
727.25296 2
728.7903 2
736.69196 3
737.3365 3
739.75405 2
741.81456 2
742.27614 2
744.21799 2
744.99523 3
748.17208 4
749.13261 3
750.81558 2
751.65401 2
759.13701 2
760.35906 2
760.88225 2
762.25167 2
762.40514 2
763.72241 2
764.1918 2
767.30116 2
768.00281 5
769.34414 2
769.46246 2
770.17538 2
774.91878 2
781.50456 4
783.6078 2
785.93943 5
790.08593 3
790.55255 5
796.78083 2
796.83129 2
800.57277 3
802.93725 4
804.01133 3
810.80679 2
811.09024 2
813.04124 3
814.41393 2
822.23624 2
823.67612 2
824.26528 2
827.76897 2
832.9157 4
833.00992 2
835.243 3
835.96198 4
839.03903 3
840.87072 2
842.35519 2
848.76393 2
850.51599 2
853.10505 2
854.93699 3
855.24514 4
855.30206 2
858.68928 3
862.78144 2
863.7799 3
863.88715 2
872.938 2
875.9641 2
876.46668 2
876.64138 2
877.00219 2
878.7322 2
881.11605 2
885.08333 6
885.99708 3
887.44399 2
891.27929 2
894.81086 2
895.90847 2
901.48172 2
904.48211 2
905.53877 2
906.67302 4
906.97008 2
914.03179 2
915.68121 2
926.9479 2
929.27347 2
930.18479 2
930.48178 2
931.10872 6
936.17127 2
937.40952 2
940.61948 5
942.685 2
943.01568 2
947.6136 2
948.34184 2
952.38961 2
958.1674 2
958.24373 3
969.27143 4
973.78247 2
975.40307 2
976.83075 2
986.50205 2
989.57183 2
992.26847 2
992.40196 2
992.68388 2
995.91339 3
995.97289 2
1002.94735 6
1012.24084 4
1015.30151 2
1017.79647 2
1024.50255 2
1029.87548 3
1035.13372 3
1036.1604 3
1036.28038 2
1042.51276 2
1044.04046 2
1045.91712 2
1047.90392 2
1049.88916 2
1051.17515 3
1051.31729 2
1053.90227 2
1062.14862 2
1065.53897 5
1067.75671 4
1068.98125 3
1069.35736 2
1069.59846 2
1076.46943 2
1080.89501 2
1081.23675 2
1084.84184 2
1085.02918 2
1088.75223 2
1091.46835 2
1092.84961 2
1098.69924 3
1098.95971 2
1101.90449 3
1102.98608 2
1104.24996 6
1110.30993 2
1115.4572 2
1118.7001 2
1118.80425 2
1118.96883 2
1119.78302 3
1120.95165 2
1122.03151 3
1123.66998 2
1124.59017 2
1127.214 2
1128.02383 2
1133.48286 2
1136.41783 2
1137.32821 4
1141.37013 2
1146.42964 2
1146.5737 2
1147.08799 2
1151.19097 2
1153.61939 2
1155.0553 4
1161.60985 2
1161.93693 4
1162.0703 2
1163.21024 2
1163.98176 2
1164.53683 2
1170.10199 3
1171.47541 2
1173.64326 2
1175.55335 2
1178.1542 3
1180.94308 2
1182.66339 3
1184.36913 3
1184.87992 2
1189.55073 2
1190.89457 2
1192.03484 2
1193.89812 2
1193.9803 2
1194.49713 2
1197.60023 4
1197.77012 2
1198.57397 2
1201.03863 2
1202.80871 2
1205.20315 2
1210.59446 2
1222.18729 2
1223.85212 3
1227.73486 2
1228.36899 2
1232.20791 2
1235.90403 2
1238.82149 2
1245.97846 2
1247.28313 2
1250.25617 2
1251.37474 2
1254.90779 2
1258.40029 2
1263.63295 4
1270.44985 2
1271.39794 2
1272.51705 2
1274.38667 5
1277.22253 2
1278.51972 2
1286.92649 2
1290.80352 2
1292.13156 2
1293.41732 2
1296.34357 2
1296.55369 2
1297.11127 2
1300.75858 2
1301.80646 2
1302.0865 2
1303.28306 3
1314.96147 2
1316.14691 2
1318.70992 4
1319.7788 2
1321.34738 3
1323.9555 2
1331.74423 2
1337.83791 2
1346.22448 2
1348.64699 2
1348.70373 2
1349.68324 3
1350.24382 2
1350.59321 3
1352.86875 2
1355.3099 2
1356.38692 2
1360.13014 6
1360.2433 2
1360.30848 5
1370.62027 3
1373.62254 2
1377.42374 3
1379.84958 2
1380.29898 2
1381.22441 2
1381.76875 2
1391.9284 2
1396.06081 3
1405.10812 2
1405.22348 2
1406.58841 3
1409.23954 2
1411.27357 2
1411.88245 3
1412.3329 4
1415.96315 2
1417.03948 2
1417.24128 4
1419.21393 2
1430.89389 2
1432.38397 4
1433.92099 2
1434.96941 2
1435.159 3
1439.70457 2
1442.40161 2
1452.73877 2
1453.60194 2
1457.66868 2
1459.64884 3
1460.51111 2
1460.57629 2
1461.93798 2
1464.08864 3
1466.85136 2
1473.19941 2
1474.56428 2
1478.11214 2
1478.87269 3
1479.9822 2
1494.30215 2
1515.06038 2
1530.70609 2
1535.03751 2
1540.68129 2
1542.24863 2
1542.75485 2
1546.40793 5
1547.1804 2
1549.54289 2
1553.30377 2
1558.46382 2
1559.33849 2
1568.03527 2
1569.35323 2
1573.19287 2
1574.31014 2
1574.63764 3
1581.79677 2
1582.15709 3
1582.31998 2
1583.00278 2
1590.71301 2
1592.34741 6
1594.37629 3
1608.63987 2
1610.42374 2
1611.89074 2
1617.04266 2
1620.28322 2
1622.92404 2
1625.50468 4
1633.57173 2
1642.71189 2
1644.98713 2
1645.4618 2
1659.41285 4
1671.9057 3
1673.82353 2
1674.3364 2
1678.97641 2
1679.12224 2
1681.06922 4
1684.68008 2
1687.40164 2
1690.64588 3
1695.68022 2

NAME: Astragalin
PRECURSORMZ: 447.0928
PRECURSORTYPE: [M-H]-
FORMULA: C21H20O11
RETENTIONTIME: 3.048
IONMODE: Negative
COMMENT: Spectra extracted with MS2extract R package
INCHIKEY: JPUKWEQWGBDDQB-QSOFNFLRSA-N
SMILES: C1=CC(=CC=C1C2=C(C(=O)C3=C(C=C(C=C3O2)O)O)OC4C(C(C(C(O4)CO)O)O)O)O
CCS: 
COLLISIONENERGY: 20eV
INSTRUMENTTYPE: ESI-QTOF
Num Peaks: 9
151.00379 2
227.03527 4
255.03007 8
256.03724 2
284.03307 64
285.04027 27
327.05106 2
447.09464 100
448.09773 6

NAME: Astragalin
PRECURSORMZ: 447.0928
PRECURSORTYPE: [M-H]-
FORMULA: C21H20O11
RETENTIONTIME: 3.048
IONMODE: Negative
COMMENT: Spectra extracted with MS2extract R package
INCHIKEY: JPUKWEQWGBDDQB-QSOFNFLRSA-N
SMILES: C1=CC(=CC=C1C2=C(C(=O)C3=C(C=C(C=C3O2)O)O)OC4C(C(C(C(O4)CO)O)O)O)O
CCS: 
COLLISIONENERGY: 40eV
INSTRUMENTTYPE: ESI-QTOF
Num Peaks: 8
227.03467 75
228.03885 3
229.04995 3
255.02987 100
256.03615 11
257.04435 2
284.03217 40
285.03958 12

NAME: Avicularin
PRECURSORMZ: 433.07761
PRECURSORTYPE: [M-H]-
FORMULA: C20H18O11
RETENTIONTIME: 2.979
IONMODE: Negative
COMMENT: Spectra extracted with MS2extract R package
INCHIKEY: BDCDNTVZSILEOY-UXYNSRGZSA-N
SMILES: C1=CC(=C(C=C1C2=C(C(=O)C3=C(C=C(C=C3O2)O)O)OC4C(C(C(O4)CO)O)O)O)O
CCS: 
COLLISIONENERGY: 20eV
INSTRUMENTTYPE: ESI-QTOF
Num Peaks: 9
151.00354 3
178.99856 3
255.02977 2
271.02498 4
300.02882 100
300.06786 5
301.03663 97
301.07599 4
433.07787 16

NAME: Avicularin
PRECURSORMZ: 433.07761
PRECURSORTYPE: [M-H]-
FORMULA: C20H18O11
RETENTIONTIME: 2.981
IONMODE: Negative
COMMENT: Spectra extracted with MS2extract R package
INCHIKEY: BDCDNTVZSILEOY-UXYNSRGZSA-N
SMILES: C1=CC(=C(C=C1C2=C(C(=O)C3=C(C=C(C=C3O2)O)O)OC4C(C(C(O4)CO)O)O)O)O
CCS: 
COLLISIONENERGY: 40eV
INSTRUMENTTYPE: ESI-QTOF
Num Peaks: 34
65.00291 2
107.01348 6
108.02131 4
109.02915 4
121.02892 5
135.00796 2
148.01604 2
151.00327 20
163.00358 7
164.01108 2
178.99827 7
199.03967 2
201.05543 2
211.03952 4
216.04269 2
226.02679 3
227.03461 6
229.05017 2
243.02953 19
243.03938 2
245.04467 5
254.02184 4
255.02963 50
255.06351 2
271.02483 100
271.03315 7
271.06242 4
272.03232 3
273.03964 3
283.02487 3
299.01896 3
300.02736 51
300.06411 2
301.03494 9

NAME: Avicularin
PRECURSORMZ: 433.07761
PRECURSORTYPE: [M-H]-
FORMULA: C20H18O11
RETENTIONTIME: 2.988
IONMODE: Negative
COMMENT: Spectra extracted with MS2extract R package
INCHIKEY: BDCDNTVZSILEOY-UXYNSRGZSA-N
SMILES: C1=CC(=C(C=C1C2=C(C(=O)C3=C(C=C(C=C3O2)O)O)OC4C(C(C(O4)CO)O)O)O)O
CCS: 
COLLISIONENERGY: 60eV
INSTRUMENTTYPE: ESI-QTOF
Num Peaks: 60
63.02369 7
65.00291 11
83.01338 5
91.01853 4
93.03423 3
107.01348 13
108.02139 21
108.02862 2
109.02903 11
119.01368 3
120.02115 3
121.02907 5
131.04993 2
135.00833 5
143.0501 3
145.02961 3
147.00812 3
148.01647 11
151.00364 7
155.04979 3
157.02968 2
159.04488 4
163.00337 6
164.01109 4
169.02868 2
171.04478 7
173.02343 2
173.05993 2
174.03156 2
175.03975 3
182.03671 3
183.04508 8
185.02395 4
187.03987 8
197.0239 4
198.03188 5
199.03992 20
199.04962 2
201.01907 10
203.03465 6
211.03973 10
213.0187 5
214.02688 2
215.03468 14
225.01886 2
226.02712 7
227.03477 24
227.04535 2
229.01415 6
242.02195 5
243.02988 54
243.04053 5
245.04503 3
254.02184 2
255.02964 44
255.0402 4
271.02484 100
271.03514 8
271.06051 4
299.01917 3

NAME: Avicularin
PRECURSORMZ: 433.07761
PRECURSORTYPE: [M-H]-
FORMULA: C20H18O11
RETENTIONTIME: 2.974
IONMODE: Negative
COMMENT: Spectra extracted with MS2extract R package
INCHIKEY: BDCDNTVZSILEOY-UXYNSRGZSA-N
SMILES: C1=CC(=C(C=C1C2=C(C(=O)C3=C(C=C(C=C3O2)O)O)OC4C(C(C(O4)CO)O)O)O)O
CCS: 
COLLISIONENERGY: 80eV
INSTRUMENTTYPE: ESI-QTOF
Num Peaks: 181
51.02364 7
53.00273 2
63.02356 58
63.02931 5
65.00284 100
65.00848 10
65.03917 13
67.01821 7
68.99784 5
77.03921 2
79.01841 8
80.02639 2
81.03408 3
83.01338 15
83.01843 2
89.00292 2
89.03935 13
91.01856 31
91.05498 2
92.02631 3
93.03389 19
93.04101 2
95.013 8
95.02003 2
96.02127 4
101.03938 11
103.05463 2
104.02601 2
105.03504 4
107.01353 75
107.02093 6
108.0213 100
108.02828 7
109.02914 62
109.03703 5
113.0394 3
114.04755 5
115.05518 19
115.06251 2
116.02563 2
117.03427 21
117.04181 2
119.01373 18
119.02102 2
119.05049 2
120.02121 17
120.02915 2
121.02949 14
124.01691 3
125.03988 6
127.05524 17
127.06331 2
128.0262 3
129.03432 23
129.04227 2
130.04182 5
131.05001 12
132.0215 5
133.02928 32
133.03777 4
135.00854 12
135.04699 3
136.01565 4
137.02452 4
139.05452 8
141.0339 18
141.04143 3
142.0422 6
143.04997 89
143.05893 8
144.02202 2
145.02903 84
145.03664 6
146.03711 11
147.00833 20
147.01594 2
147.0448 12
148.01606 36
148.02476 3
151.00347 8
153.03458 19
153.04384 2
154.04165 21
154.05035 2
155.04984 34
155.05868 3
156.0203 5
156.02373 3
157.02938 46
157.03728 4
158.03799 11
159.04483 53
159.05439 7
160.0162 3
161.02353 5
163.00329 15
164.01167 3
165.03425 3
167.04999 11
169.02922 35
169.03788 3
170.0371 21
170.04638 3
171.00717 2
171.04469 84
171.05388 8
172.01588 6
172.05379 3
173.02387 39
173.03388 3
174.0323 10
175.03984 16
175.04829 2
178.99905 2
181.02912 10
182.03723 43
182.04691 2
183.04456 51
183.05504 5
184.01693 5
185.02402 22
185.03465 4
186.03238 12
186.0419 2
187.03973 74
187.04956 8
189.01837 2
190.99946 2
195.04527 2
197.0244 48
197.03459 4
198.03212 60
198.04294 5
199.03976 90
199.04946 8
200.01109 11
200.01699 2
200.0482 3
201.01922 77
201.02944 6
201.05137 3
202.0271 12
203.03527 27
203.04506 4
209.02355 4
210.03122 13
210.04206 2
211.04017 21
211.05029 3
213.01856 28
213.03031 2
214.02696 23
214.03692 2
215.0347 79
215.04457 8
225.01897 22
225.02906 2
226.02605 44
226.03496 4
226.99872 3
227.03498 52
227.04536 6
229.01375 29
229.02403 2
231.02881 2
241.01433 4
242.02228 43
242.03339 6
243.02956 61
243.04116 6
243.06195 2
253.01407 3
254.0221 3
255.02989 22
255.04015 2
270.01557 4
271.0243 57
271.03569 6
271.05944 2
299.01826 2
574.10907 2

NAME: Caffeic acid
PRECURSORMZ: 179.0351
PRECURSORTYPE: [M-H]-
FORMULA: C9H8O4
RETENTIONTIME: 2.385
IONMODE: Negative
COMMENT: Spectra extracted with MS2extract R package
INCHIKEY: QAIPRVGONGVQAS-DUXPYHPUSA-N
SMILES: C1=CC(=C(C=C1C=CC(=O)O)O)O
CCS: 
COLLISIONENERGY: 20eV
INSTRUMENTTYPE: ESI-QTOF
Num Peaks: 4
107.04961 5
117.03422 2
134.03678 24
135.04662 100

NAME: Caffeic acid
PRECURSORMZ: 179.0351
PRECURSORTYPE: [M-H]-
FORMULA: C9H8O4
RETENTIONTIME: 2.34
IONMODE: Negative
COMMENT: Spectra extracted with MS2extract R package
INCHIKEY: QAIPRVGONGVQAS-DUXPYHPUSA-N
SMILES: C1=CC(=C(C=C1C=CC(=O)O)O)O
CCS: 
COLLISIONENERGY: 40eV
INSTRUMENTTYPE: ESI-QTOF
Num Peaks: 9
106.0417 10
107.04956 8
108.02099 12
109.02892 9
117.03391 8
132.02083 5
133.02867 5
134.03661 100
135.0445 47

NAME: Catechin
PRECURSORMZ: 289.07123
PRECURSORTYPE: [M-H]-
FORMULA: C15H14O6
RETENTIONTIME: 2.216
IONMODE: Negative
COMMENT: Spectra extracted with MS2extract R package
INCHIKEY: PFTAWBLQPZVEMU-DZGCQCFKSA-N
SMILES: C1C(C(OC2=CC(=CC(=C21)O)O)C3=CC(=C(C=C3)O)O)O
CCS: 
COLLISIONENERGY: 20eV
INSTRUMENTTYPE: ESI-QTOF
Num Peaks: 53
108.0215 2
109.02909 100
121.02927 16
122.03679 4
123.04472 57
125.02397 79
135.04469 7
137.02411 41
138.03172 5
139.03957 9
145.02899 4
146.03672 3
147.04444 2
149.02428 21
150.03148 3
151.03958 48
159.04473 7
160.05254 6
161.02383 4
161.06067 21
162.03173 7
163.03949 5
164.01129 13
165.0191 18
166.02643 3
167.03461 9
173.06039 3
174.03167 2
174.06772 2
175.03953 9
175.07584 8
177.05513 3
179.03449 28
185.06024 3
186.0679 2
187.03995 20
188.04775 16
199.07589 3
201.05543 2
202.06318 13
203.07085 79
205.05022 43
212.04712 3
217.04997 2
217.08642 4
221.08176 33
227.07106 12
230.0579 5
231.02946 3
245.08148 70
247.06068 7
271.06061 5
289.07154 40

NAME: Catechin
PRECURSORMZ: 289.07123
PRECURSORTYPE: [M-H]-
FORMULA: C15H14O6
RETENTIONTIME: 2.214
IONMODE: Negative
COMMENT: Spectra extracted with MS2extract R package
INCHIKEY: PFTAWBLQPZVEMU-DZGCQCFKSA-N
SMILES: C1C(C(OC2=CC(=CC(=C21)O)O)C3=CC(=C(C=C3)O)O)O
CCS: 
COLLISIONENERGY: 40eV
INSTRUMENTTYPE: ESI-QTOF
Num Peaks: 40
105.03446 7
107.05001 3
108.02164 11
109.02943 100
117.03447 5
120.02147 2
121.02974 21
122.03751 20
123.04505 92
125.0245 15
131.04998 2
133.02936 3
135.04515 9
137.02446 16
138.0321 3
145.02931 8
146.03712 4
147.04496 2
149.02428 5
149.06029 2
150.03199 8
151.03995 9
157.06565 2
158.03724 2
159.04526 13
160.05267 4
161.02426 2
161.06051 5
162.03182 3
163.03989 2
164.01133 5
173.06077 6
174.03183 2
175.03985 2
175.07617 4
185.06053 2
187.03997 5
188.04755 3
201.05566 3
203.07109 3

NAME: Chlorogenic acid
PRECURSORMZ: 353.08789
PRECURSORTYPE: [M-H]-
FORMULA: C16H18O9
RETENTIONTIME: 2.251
IONMODE: Negative
COMMENT: Spectra extracted with MS2extract R package
INCHIKEY: CWVRJTMFETXNAD-JUHZACGLSA-N
SMILES: C1C(C(C(CC1(C(=O)O)O)OC(=O)C=CC2=CC(=C(C=C2)O)O)O)O
CCS: 
COLLISIONENERGY: 20eV
INSTRUMENTTYPE: ESI-QTOF
Num Peaks: 2
161.02403 2
191.05725 100

NAME: Chlorogenic acid
PRECURSORMZ: 353.08789
PRECURSORTYPE: [M-H]-
FORMULA: C16H18O9
RETENTIONTIME: 2.254
IONMODE: Negative
COMMENT: Spectra extracted with MS2extract R package
INCHIKEY: CWVRJTMFETXNAD-JUHZACGLSA-N
SMILES: C1C(C(C(CC1(C(=O)O)O)OC(=O)C=CC2=CC(=C(C=C2)O)O)O)O
CCS: 
COLLISIONENERGY: 40eV
INSTRUMENTTYPE: ESI-QTOF
Num Peaks: 9
109.02948 3
111.04515 4
127.04027 8
133.02939 3
135.04517 4
161.0244 2
171.02981 2
173.04556 3
191.05644 100

NAME: Chlorogenic acid
PRECURSORMZ: 353.08771
PRECURSORTYPE: [M-H]-
FORMULA: C16H18O9
RETENTIONTIME: 2.226
IONMODE: Negative
COMMENT: Spectra extracted with MS2extract R package
INCHIKEY: CWVRJTMFETXNAD-JUHZACGLSA-N
SMILES: C1C(C(C(CC1(C(=O)O)O)OC(=O)C=CC2=CC(=C(C=C2)O)O)O)O
CCS: 
COLLISIONENERGY: 60eV
INSTRUMENTTYPE: ESI-QTOF
Num Peaks: 30
53.03945 2
55.01843 7
57.03418 8
59.01345 30
59.01881 3
65.03933 2
67.0185 7
69.03408 10
71.01364 9
73.02912 6
81.03416 9
83.05022 6
85.02917 100
85.03579 6
87.00834 15
93.03436 39
93.04128 3
97.02916 4
99.04464 4
108.02129 4
109.02927 9
111.04458 3
127.03953 8
132.02142 3
133.02936 7
134.03691 4
135.04503 3
137.02403 2
171.02917 2
191.05588 12

NAME: Chlorogenic acid
PRECURSORMZ: 353.08771
PRECURSORTYPE: [M-H]-
FORMULA: C16H18O9
RETENTIONTIME: 2.212
IONMODE: Negative
COMMENT: Spectra extracted with MS2extract R package
INCHIKEY: CWVRJTMFETXNAD-JUHZACGLSA-N
SMILES: C1C(C(C(CC1(C(=O)O)O)OC(=O)C=CC2=CC(=C(C=C2)O)O)O)O
CCS: 
COLLISIONENERGY: 80eV
INSTRUMENTTYPE: ESI-QTOF
Num Peaks: 37
53.03972 5
55.01885 21
55.02361 2
56.99778 3
57.03449 14
58.00565 2
59.01368 47
59.01886 3
65.00299 2
65.03969 6
67.01903 15
69.03446 20
70.00628 2
71.01404 14
73.02953 5
75.02379 2
77.04006 3
79.01902 2
81.03457 11
83.05039 3
84.02201 2
85.02959 100
85.0361 7
87.00872 17
89.00362 3
89.0396 4
93.03464 63
93.0413 7
97.02909 3
104.02666 5
108.02179 10
109.02928 11
115.01844 2
132.02174 7
133.0295 3
134.03746 4
135.0455 2

NAME: Corosolic acid
PRECURSORMZ: 471.34741
PRECURSORTYPE: [M-H]-
FORMULA: C30H48O4
RETENTIONTIME: 6.231
IONMODE: Negative
COMMENT: Spectra extracted with MS2extract R package
INCHIKEY: HFGSQOYIOKBQOW-ZSDYHTTISA-N
SMILES: CC1CCC2(CCC3(C(=CCC4C3(CCC5C4(CC(C(C5(C)C)O)O)C)C)C2C1C)C)C(=O)O
CCS: 
COLLISIONENERGY: 20eV
INSTRUMENTTYPE: ESI-QTOF
Num Peaks: 2
471.34772 100
472.35082 8

NAME: Cryptochlorogenic acid
PRECURSORMZ: 353.0878
PRECURSORTYPE: [M-H]-
FORMULA: C16H18O9
RETENTIONTIME: 2.238
IONMODE: Negative
COMMENT: Spectra extracted with MS2extract R package
INCHIKEY: GYFFKZTYYAFCTR-JUHZACGLSA-N
SMILES: O=C(O)[C@@]1(O)C[C@@H](O)[C@H](OC(/C=C/C2=CC(O)=C(O)C=C2)=O)[C@H](O)C1
CCS: 
COLLISIONENERGY: 20eV
INSTRUMENTTYPE: ESI-QTOF
Num Peaks: 19
59.01382 3
71.01401 2
85.02966 2
93.0349 13
111.04558 6
135.04577 47
135.05275 3
137.02478 6
155.03555 7
161.02502 4
173.04641 100
173.05444 5
173.0769 4
179.03583 73
179.04312 4
179.06355 3
191.0569 56
191.06477 3
191.08635 2

NAME: Cryptochlorogenic acid
PRECURSORMZ: 353.0878
PRECURSORTYPE: [M-H]-
FORMULA: C16H18O9
RETENTIONTIME: 2.268
IONMODE: Negative
COMMENT: Spectra extracted with MS2extract R package
INCHIKEY: GYFFKZTYYAFCTR-JUHZACGLSA-N
SMILES: O=C(O)[C@@]1(O)C[C@@H](O)[C@H](OC(/C=C/C2=CC(O)=C(O)C=C2)=O)[C@H](O)C1
CCS: 
COLLISIONENERGY: 40eV
INSTRUMENTTYPE: ESI-QTOF
Num Peaks: 31
57.03392 3
59.01327 12
67.01846 11
69.03406 4
71.0133 5
79.05461 2
81.03403 2
83.04995 4
85.02901 25
85.03548 2
87.00828 4
93.03412 49
93.04095 3
97.02896 2
99.04487 2
107.04974 3
109.02882 3
111.0086 2
111.0447 8
127.03964 5
133.02921 5
134.03688 13
135.04496 100
135.05199 6
137.02403 4
161.02332 4
171.02965 2
173.04536 12
179.03504 4
191.05571 23
191.06588 2

NAME: Cryptochlorogenic acid
PRECURSORMZ: 353.08771
PRECURSORTYPE: [M-H]-
FORMULA: C16H18O9
RETENTIONTIME: 2.271
IONMODE: Negative
COMMENT: Spectra extracted with MS2extract R package
INCHIKEY: GYFFKZTYYAFCTR-JUHZACGLSA-N
SMILES: O=C(O)[C@@]1(O)C[C@@H](O)[C@H](OC(/C=C/C2=CC(O)=C(O)C=C2)=O)[C@H](O)C1
CCS: 
COLLISIONENERGY: 60eV
INSTRUMENTTYPE: ESI-QTOF
Num Peaks: 40
53.0393 2
55.01865 4
57.03407 7
59.01349 22
59.01938 2
65.03945 5
67.01862 19
69.03401 11
71.01352 6
71.05002 2
73.02902 3
79.05492 6
81.03429 6
83.05001 3
85.02922 52
85.03583 4
87.00855 8
89.03946 12
91.05487 4
93.03434 100
93.04116 6
97.02892 2
99.0451 2
104.02709 2
105.03444 2
106.04222 5
107.04977 8
108.02135 7
109.02925 6
111.04453 3
117.03474 5
127.0398 2
132.02153 7
133.02919 15
133.03731 2
134.03734 53
134.04538 4
135.04498 85
135.05362 7
161.02379 2

NAME: Cryptochlorogenic acid
PRECURSORMZ: 353.08771
PRECURSORTYPE: [M-H]-
FORMULA: C16H18O9
RETENTIONTIME: 2.275
IONMODE: Negative
COMMENT: Spectra extracted with MS2extract R package
INCHIKEY: GYFFKZTYYAFCTR-JUHZACGLSA-N
SMILES: O=C(O)[C@@]1(O)C[C@@H](O)[C@H](OC(/C=C/C2=CC(O)=C(O)C=C2)=O)[C@H](O)C1
CCS: 
COLLISIONENERGY: 80eV
INSTRUMENTTYPE: ESI-QTOF
Num Peaks: 32
51.02369 3
53.03927 5
55.01855 11
57.03422 10
59.01345 20
65.00268 5
65.0392 17
67.01854 19
67.02466 2
69.03437 12
71.01365 3
77.03959 4
79.05478 3
81.03395 9
85.02917 31
85.036 2
87.00852 3
89.03942 16
93.03437 100
93.04108 6
104.02637 4
105.03372 2
106.04158 3
107.04953 4
108.02152 10
109.02909 6
117.03407 2
132.02145 12
133.02925 8
134.03709 37
134.0456 3
135.04531 20

NAME: Cyanidin 3-Galactoside
PRECURSORMZ: 448.10101
PRECURSORTYPE: [M-H]-
FORMULA: C21H21O11
RETENTIONTIME: 2.143
IONMODE: Negative
COMMENT: Spectra extracted with MS2extract R package
INCHIKEY: YTMNONATNXDQJF-QSLGVYCOSA-N
SMILES: OC1=CC(O)=C(C=C(O[C@H]2[C@H](O)[C@@H](O)[C@@H](O)[C@@H](CO)O2)C(C3=CC=C(O)C(O)=C3)=[O+]4)C4=C1.[Cl-]
CCS: 
COLLISIONENERGY: 20eV
INSTRUMENTTYPE: ESI-QTOF
Num Peaks: 16
125.02505 6
126.02825 2
241.04384 2
283.02482 2
284.03282 50
284.04383 6
284.06631 2
285.0368 100
285.04842 10
286.04398 27
286.05592 2
299.05718 2
300.05967 4
322.06483 2
328.05477 3
448.09676 24

NAME: Cyanidin 3-Galactoside
PRECURSORMZ: 448.10101
PRECURSORTYPE: [M-H]-
FORMULA: C21H21O11
RETENTIONTIME: 2.139
IONMODE: Negative
COMMENT: Spectra extracted with MS2extract R package
INCHIKEY: YTMNONATNXDQJF-QSLGVYCOSA-N
SMILES: OC1=CC(O)=C(C=C(O[C@H]2[C@H](O)[C@@H](O)[C@@H](O)[C@@H](CO)O2)C(C3=CC=C(O)C(O)=C3)=[O+]4)C4=C1.[Cl-]
CCS: 
COLLISIONENERGY: 40eV
INSTRUMENTTYPE: ESI-QTOF
Num Peaks: 118
57.03307 4
79.05656 2
89.94086 2
91.02019 2
93.60068 2
104.02665 3
105.03484 2
106.0369 2
107.01367 3
108.02144 16
109.02971 7
119.01357 3
120.02096 4
121.0305 3
122.03154 3
125.02317 9
126.02824 2
135.00754 2
143.04861 2
145.03001 2
147.00842 38
147.0175 3
147.04483 4
148.01529 19
148.02493 3
149.01947 8
149.02349 4
153.01872 2
155.04936 2
159.04385 2
163.00191 4
167.04951 7
168.05236 2
169.02939 3
170.03703 6
171.03928 6
171.04577 2
172.0487 2
172.05303 2
173.05729 3
175.03924 2
176.01005 2
177.01938 4
183.04381 10
184.04998 6
185.05679 6
186.02783 3
186.03312 3
187.03736 3
188.04687 6
189.05456 4
190.05718 3
195.04539 6
196.05188 7
197.02298 2
198.03088 3
199.03928 10
200.04645 6
201.05275 3
210.03317 2
211.03958 26
211.04951 4
212.04668 28
212.05804 3
213.01828 4
213.05212 8
213.06453 2
214.02722 4
214.05727 4
215.03396 3
216.04354 4
217.04981 3
218.05353 2
223.03991 5
224.04204 3
227.03435 29
227.04488 4
228.03933 11
228.04911 2
229.04451 4
229.05016 2
230.05472 2
238.02483 3
239.03406 16
239.04011 5
240.04184 35
240.04982 4
240.05522 2
241.01368 3
241.04616 25
241.05665 3
242.01617 2
243.02778 3
244.03697 4
252.07668 2
255.02899 37
255.03983 5
256.03628 42
256.04818 5
256.06967 2
257.04209 21
257.0576 2
258.04937 6
267.03004 5
268.03439 5
271.30351 2
283.02472 35
283.03726 3
284.03115 98
284.04251 14
284.06816 3
285.03587 100
285.0464 14
285.07587 3
286.04287 10
579.28017 3
828.76073 2
877.82542 2

NAME: Cyanidin 3-Galactoside
PRECURSORMZ: 448.10101
PRECURSORTYPE: [M-H]-
FORMULA: C21H21O11
RETENTIONTIME: 2.148
IONMODE: Negative
COMMENT: Spectra extracted with MS2extract R package
INCHIKEY: YTMNONATNXDQJF-QSLGVYCOSA-N
SMILES: OC1=CC(O)=C(C=C(O[C@H]2[C@H](O)[C@@H](O)[C@@H](O)[C@@H](CO)O2)C(C3=CC=C(O)C(O)=C3)=[O+]4)C4=C1.[Cl-]
CCS: 
COLLISIONENERGY: 60eV
INSTRUMENTTYPE: ESI-QTOF
Num Peaks: 164
51.02452 2
57.03434 10
63.02369 2
75.0242 3
79.01916 3
83.01363 2
91.01831 2
92.02716 7
95.01204 2
95.01502 2
101.03944 2
101.43463 2
103.02022 2
103.05674 2
104.02682 10
105.03105 2
107.01378 3
108.02247 19
109.02868 10
116.02648 2
118.04148 5
119.01405 35
119.02124 4
120.01693 7
120.02184 15
120.03036 2
120.05269 2
121.02936 10
125.02473 5
127.05436 3
129.03407 3
130.0403 2
131.04467 2
133.03099 5
134.06883 2
135.00539 2
136.01613 3
137.02386 3
139.05623 3
141.03455 2
142.04304 2
143.04907 2
144.0223 2
144.0528 3
145.02887 2
146.03324 2
146.03837 6
147.00914 30
147.01881 4
147.04158 4
148.01646 21
148.0256 2
148.04833 4
149.01839 6
149.02576 3
154.04499 4
155.05075 8
156.02153 5
156.05765 2
157.03048 3
158.03754 9
159.04626 7
161.02294 3
163.00307 5
167.05116 10
168.05337 6
169.02749 2
170.03732 14
171.04468 15
171.05443 4
172.05059 6
173.01827 2
173.02598 2
173.05613 2
174.03307 5
175.03965 5
176.01044 3
181.03033 3
182.03719 8
182.04752 2
183.0455 63
183.05477 3
184.04911 15
185.02514 6
185.06046 7
186.02707 2
186.0323 7
187.03961 21
188.0425 2
188.04838 8
189.02323 2
189.04911 2
189.05535 2
194.0328 2
195.0452 15
195.05542 3
196.04768 4
196.05262 5
197.02448 3
198.03235 6
199.04 26
199.04882 3
200.00948 3
200.04268 12
200.05015 5
201.01973 4
201.05571 3
210.03223 10
211.03996 100
211.0503 13
211.07259 2
212.04369 23
212.05489 3
213.0201 13
213.05248 7
213.06048 2
214.02741 9
214.0595 3
215.02984 2
215.03513 4
215.58282 2
217.04981 2
218.05596 2
223.04017 2
224.04354 4
226.02671 3
227.03485 67
227.04603 7
227.06051 2
227.07018 2
228.03849 29
228.04802 5
229.04658 4
238.02752 3
239.03471 32
239.0459 4
240.04173 14
242.05211 2
243.02533 2
248.79104 2
254.02524 2
255.02938 72
255.04252 6
255.0638 2
256.03391 22
256.04314 6
256.04974 2
257.04156 2
267.02904 3
283.02574 9
284.03151 7
285.03659 2
286.04137 2
295.02256 2
310.04277 2
592.43272 3
687.70776 2
805.29654 4
805.31856 2
879.86188 2
939.30396 2
941.16473 2
941.64614 3
980.46682 2

NAME: Cyanidin 3-Galactoside
PRECURSORMZ: 448.10101
PRECURSORTYPE: [M-H]-
FORMULA: C21H21O11
RETENTIONTIME: 2.152
IONMODE: Negative
COMMENT: Spectra extracted with MS2extract R package
INCHIKEY: YTMNONATNXDQJF-QSLGVYCOSA-N
SMILES: OC1=CC(O)=C(C=C(O[C@H]2[C@H](O)[C@@H](O)[C@@H](O)[C@@H](CO)O2)C(C3=CC=C(O)C(O)=C3)=[O+]4)C4=C1.[Cl-]
CCS: 
COLLISIONENERGY: 80eV
INSTRUMENTTYPE: ESI-QTOF
Num Peaks: 234
51.02507 4
52.60525 2
53.03894 3
54.04353 5
57.03453 16
60.30737 2
61.00807 4
62.01623 7
63.02378 5
65.00294 12
65.04068 2
67.01998 6
67.02539 2
68.99793 15
69.30375 2
75.02451 6
76.02795 2
76.0317 6
78.01142 3
79.01833 8
79.02104 2
79.05578 3
87.02367 2
91.01893 12
92.02211 11
92.02595 5
92.0595 5
92.57356 2
92.99715 2
93.03172 2
93.03511 2
94.00593 2
95.0143 2
96.01798 3
99.34535 3
101.03925 7
101.04606 2
104.02751 7
105.03541 5
106.00625 3
106.03911 3
107.01397 23
108.01631 3
108.02185 59
108.02915 6
109.02944 30
109.03782 2
110.84449 2
113.03888 2
115.05501 5
115.05837 2
116.02604 4
116.05814 2
117.03378 9
119.01365 84
119.0218 8
119.03296 2
119.04976 2
120.01705 5
120.02223 18
120.54469 2
121.02891 4
122.03366 3
124.01291 2
125.04044 4
127.05592 8
127.06413 3
128.05788 6
129.03491 12
129.04025 2
130.04338 5
131.01192 2
131.04998 16
131.05782 2
132.0212 3
132.05545 2
133.03038 7
133.03888 2
134.03175 5
134.03637 2
139.05539 11
139.06444 2
140.0592 7
141.02949 2
141.03415 12
142.04183 5
143.04974 19
143.05992 3
144.02147 3
144.05371 5
145.02964 16
146.03732 12
146.04472 2
147.00915 31
147.01794 6
147.04276 2
148.01526 15
151.47173 4
153.03566 6
154.03693 10
154.04313 18
155.04996 39
155.05843 3
155.06416 2
156.02331 3
156.05733 6
157.02953 12
157.03566 4
158.03672 15
159.04049 6
159.0455 18
159.05537 2
160.04996 7
161.02302 6
165.03864 6
166.03634 4
166.04437 3
167.05122 29
167.06127 4
168.05271 4
169.03014 10
170.03721 10
170.04258 2
171.04525 47
171.05546 5
172.01568 3
172.04758 10
172.0517 22
172.06166 2
173.02279 4
173.05671 3
174.03035 8
178.04412 2
181.0295 9
181.03796 2
182.03708 47
182.04687 3
183.04529 100
183.05509 7
183.07431 3
183.96995 2
184.01736 7
184.04843 15
185.02493 32
185.03521 2
185.05422 4
185.0604 5
186.02552 2
186.03068 9
186.03803 2
187.03471 6
187.04033 29
187.05021 5
188.0422 8
188.04971 4
189.05222 2
194.03926 2
195.04663 16
195.05778 3
196.05056 7
197.02461 13
197.03415 2
198.03104 27
198.04198 3
198.90949 3
199.04128 68
199.04723 6
199.0517 4
199.06786 3
199.59521 2
199.63162 2
200.01026 5
200.04383 18
200.0494 6
200.0552 5
209.02367 4
210.03196 30
210.04174 11
211.03962 97
211.047 7
211.06376 2
211.07557 2
212.04109 10
212.04741 4
212.05469 2
213.01857 9
213.05157 2
214.02706 10
216.0373 4
225.02011 6
225.05316 2
226.0271 24
226.03962 2
227.03548 65
227.04487 6
228.03686 20
228.04444 5
237.02272 4
239.03656 2
240.03672 2
250.73745 2
255.02934 13
255.04137 3
256.03366 3
256.03817 3
263.13093 2
265.01319 6
267.03079 2
273.01104 2
281.97599 2
283.3965 2
332.57064 6
371.43209 2
407.71319 3
408.33451 2
449.78116 5
461.05606 6
461.07253 2
483.0882 2
516.9113 2
542.54174 5
562.20121 4
612.36341 2
656.06512 6
672.8887 3
684.70071 3
747.1008 2
752.09139 4
789.95609 2
893.3354 4
919.80774 2
929.65143 2
932.95495 6
987.75813 3

NAME: D-(-)-Citramalic acid
PRECURSORMZ: 147.0298
PRECURSORTYPE: [M-H]-
FORMULA: C5H8O5
RETENTIONTIME: 0.876
IONMODE: Negative
COMMENT: Spectra extracted with MS2extract R package
INCHIKEY: SCNUAVZPSALVJI-NUBCRITNSA-N
SMILES: OC(C[C@](O)(C)C(O)=O)=O
CCS: 
COLLISIONENERGY: 20eV
INSTRUMENTTYPE: ESI-QTOF
Num Peaks: 8
57.03471 66
57.03961 4
59.01398 21
85.02977 54
85.03635 3
87.00911 100
87.01478 6
103.04034 4

NAME: D-(-)-Citramalic acid
PRECURSORMZ: 147.0298
PRECURSORTYPE: [M-H]-
FORMULA: C5H8O5
RETENTIONTIME: 0.838
IONMODE: Negative
COMMENT: Spectra extracted with MS2extract R package
INCHIKEY: SCNUAVZPSALVJI-NUBCRITNSA-N
SMILES: OC(C[C@](O)(C)C(O)=O)=O
CCS: 
COLLISIONENERGY: 40eV
INSTRUMENTTYPE: ESI-QTOF
Num Peaks: 5
57.03441 100
57.03966 8
59.01344 9
85.02925 6
87.00857 4

NAME: D-(-)-Citramalic acid
PRECURSORMZ: 147.0298
PRECURSORTYPE: [M-H]-
FORMULA: C5H8O5
RETENTIONTIME: 0.835
IONMODE: Negative
COMMENT: Spectra extracted with MS2extract R package
INCHIKEY: SCNUAVZPSALVJI-NUBCRITNSA-N
SMILES: OC(C[C@](O)(C)C(O)=O)=O
CCS: 
COLLISIONENERGY: 60eV
INSTRUMENTTYPE: ESI-QTOF
Num Peaks: 392
54.1144 6
55.0184 12
55.02456 4
55.6633 4
56.79476 3
56.7977 5
56.83825 2
56.86237 4
57.02735 8
57.03383 100
57.04747 3
57.26901 3
57.64411 5
57.64912 2
57.95821 4
58.01001 4
58.01484 3
58.23993 7
58.24591 2
58.43163 7
59.01345 56
59.01971 6
59.02902 3
59.56703 5
61.77011 2
61.98093 2
63.1471 6
63.15254 2
64.43639 17
64.44143 5
67.95433 13
72.76247 4
72.78938 3
72.794 2
73.6045 2
75.83658 3
81.1917 5
84.47398 3
86.55542 2
90.43141 2
91.17325 3
91.17686 3
91.25534 3
94.15635 2
95.02425 2
98.98912 4
99.28674 3
99.29416 2
99.67385 5
106.88174 3
108.23096 4
113.08437 2
113.22872 3
118.00253 2
118.79465 3
120.51842 2
120.77542 4
120.78186 2
124.49135 20
126.35339 2
126.40262 2
127.98803 15
127.995 6
128.46183 6
128.91373 7
130.92195 12
130.93074 4
137.56817 2
137.70565 2
141.31903 3
141.67524 2
142.06444 3
147.1747 2
150.08935 7
150.77621 2
153.96999 11
156.41984 8
159.0084 3
160.50931 2
160.54525 8
160.55295 3
162.17393 2
166.17651 2
167.71656 3
167.72473 2
170.74624 3
174.47284 7
174.48531 2
177.71146 6
179.23035 5
179.23775 2
180.20317 2
180.49161 8
180.50092 4
181.74953 4
183.33559 5
187.11758 2
188.29881 7
188.30747 2
191.68936 3
193.25438 5
193.2639 2
195.96039 2
198.23109 3
198.23532 3
200.61533 3
200.62811 2
200.97407 5
205.39967 2
206.14855 6
206.15738 2
206.38192 4
214.99362 3
227.77726 2
230.45189 2
232.28574 3
232.91598 6
235.01125 6
235.22482 5
236.29533 4
236.5076 3
244.98415 5
247.50113 7
249.68337 3
249.69533 2
253.15824 3
254.84951 3
256.06156 2
260.88676 2
272.86077 5
272.87682 3
274.89534 10
274.90806 2
276.85407 4
277.84025 2
284.96612 5
290.32039 3
290.3372 2
290.38743 3
310.26956 5
319.08003 2
319.09013 2
325.87211 13
329.69645 2
330.69902 2
331.23738 4
332.17597 2
336.15929 5
336.29362 5
337.23373 6
338.06481 2
340.45999 14
340.47294 7
340.4896 2
340.95856 2
340.96553 2
349.85719 3
354.5682 5
354.58212 2
358.9063 5
358.92106 2
359.51145 2
364.63731 6
365.25863 3
367.29354 9
374.41492 3
378.16913 9
378.18116 2
379.12919 2
384.01429 2
391.87619 19
391.92455 2
392.10661 28
392.19796 7
392.2102 2
392.41875 8
393.00732 4
397.86932 5
397.87747 4
398.48257 2
399.52562 4
399.53203 4
400.52001 2
400.64886 8
413.65913 4
413.67378 2
414.20851 7
414.21965 3
428.07173 13
428.0925 3
432.68847 7
432.70751 2
433.76864 2
435.65262 4
443.51738 3
451.8436 5
451.85488 3
453.42717 3
457.48448 2
472.85156 3
476.1342 4
477.91411 6
478.64016 5
480.51649 14
480.55158 2
481.37278 12
490.41922 7
495.07358 2
504.19356 4
504.20934 2
505.97332 2
511.86516 11
511.8792 5
514.0763 4
514.15917 3
517.96906 3
517.97807 2
518.08383 3
518.20072 2
524.1545 5
524.17161 2
533.66584 3
533.67549 2
535.1275 2
536.96778 6
536.98619 2
539.21404 13
539.22667 7
542.46743 2
548.90987 5
553.89762 4
559.25537 3
560.00748 2
576.71898 2
577.70875 2
580.80949 4
581.3603 8
581.52032 4
581.89358 5
600.76303 6
601.89821 4
603.80672 10
606.0734 3
609.46588 4
611.2217 3
614.79116 3
614.80533 2
622.33155 15
622.3508 9
623.85578 6
623.87685 2
631.68303 3
633.74268 3
633.75555 2
635.82014 2
637.01558 3
640.07263 39
640.09038 9
640.13181 2
640.67712 16
640.69706 4
640.72078 2
642.61949 2
643.00455 4
644.5069 3
648.61679 11
649.66348 4
650.58968 3
660.43948 2
661.49947 13
668.24323 4
670.44382 5
670.85951 2
674.55018 10
674.57099 4
692.85191 12
692.87416 4
693.77912 9
693.79526 4
694.96672 6
697.80259 8
698.19482 8
698.21537 4
705.68919 2
719.26054 4
721.76934 33
721.78814 11
721.83475 2
721.85562 8
724.77487 3
726.20832 2
729.05616 2
730.08231 3
730.21008 6
730.23096 3
744.09854 6
744.11627 3
749.27283 5
755.52004 3
757.34151 5
760.46976 5
761.69139 2
764.49386 3
767.52655 38
767.55232 10
774.80707 2
777.85406 5
780.08482 2
780.46899 2
788.37593 4
790.16231 3
790.17202 2
791.40799 2
797.35985 36
797.38192 10
797.41031 3
803.62264 2
803.64645 3
806.6328 2
807.97175 2
808.95117 6
809.98175 3
810.66222 19
810.68697 10
812.33973 40
812.40177 4
813.11513 4
813.27659 2
815.11561 8
815.13539 3
815.58596 17
815.60909 5
815.99458 10
819.19897 3
823.2241 2
833.20118 2
835.8195 5
838.02954 2
845.92473 8
845.94313 5
863.15873 5
864.00535 4
869.10198 5
869.12376 4
869.6989 7
869.71249 3
871.2433 5
879.30858 4
879.865 6
879.96353 2
880.99998 2
881.57732 20
881.61716 3
883.36504 2
886.42336 2
887.6387 7
887.66313 4
899.95713 2
907.51112 4
908.52988 2
908.83607 8
909.04136 2
910.16866 4
913.42211 2
918.29726 3
922.34306 2
922.36322 2
934.37296 2
936.09976 2
937.14411 11
937.38899 3
937.40396 2
939.77349 13
944.79127 2
946.22934 6
951.48435 9
958.79235 5
959.28788 3
959.59315 5
972.12154 4
975.23149 3
976.82231 2
977.03014 4
979.86608 13
979.89518 5
980.89977 3
982.2732 7
988.75559 33
989.69828 5
994.53887 3
994.56542 2
997.44756 2

NAME: D-(-)-Citramalic acid
PRECURSORMZ: 147.0298
PRECURSORTYPE: [M-H]-
FORMULA: C5H8O5
RETENTIONTIME: 0.84
IONMODE: Negative
COMMENT: Spectra extracted with MS2extract R package
INCHIKEY: SCNUAVZPSALVJI-NUBCRITNSA-N
SMILES: OC(C[C@](O)(C)C(O)=O)=O
CCS: 
COLLISIONENERGY: 80eV
INSTRUMENTTYPE: ESI-QTOF
Num Peaks: 591
50.50274 4
50.56268 13
50.56757 5
50.92183 2
51.4165 6
51.6413 2
51.76679 3
53.99274 5
53.99809 2
54.14729 3
54.14943 3
55.97787 6
57.32265 12
57.49547 2
57.77971 2
58.40463 11
58.88114 11
60.7066 6
61.21873 11
61.22503 2
62.82426 17
64.77005 5
64.77759 2
65.30601 3
66.0913 3
66.75701 4
67.21996 10
67.65437 4
67.84419 4
68.72454 5
71.02236 9
72.92251 7
72.92693 4
72.939 4
73.2907 9
74.90147 4
75.28844 77
75.78385 5
76.45131 2
76.87226 27
78.89368 3
79.71501 17
79.73522 2
80.1816 3
80.28925 4
82.69514 5
82.70464 4
83.13932 7
84.42168 4
85.08889 5
86.01843 27
88.53318 11
88.54115 3
89.21398 2
90.73678 3
91.17159 3
91.35921 6
93.47018 2
94.42767 3
94.80772 5
94.88885 3
94.99379 2
95.29109 4
95.38559 7
97.01492 6
98.23077 10
98.23645 3
98.40372 48
98.4113 12
98.42387 2
99.70833 6
99.98894 14
100.87159 2
102.44961 2
102.67878 3
103.9716 18
104.68439 4
104.76425 4
104.91585 20
106.37997 10
106.3856 2
109.29329 4
109.92538 2
112.1189 2
112.2649 2
113.56824 6
114.43711 51
114.44625 18
114.45418 3
114.4622 2
114.49182 2
115.05461 6
116.62482 5
118.90062 6
118.90683 2
118.92749 38
119.54678 7
119.72925 9
119.73961 2
121.50515 6
121.50919 5
123.38626 3
123.81949 2
123.82685 2
124.52267 10
127.09783 5
127.10289 3
127.23266 8
127.23808 4
128.37173 4
132.85708 6
132.8674 2
133.40105 19
136.35958 4
137.14183 5
139.46778 3
139.60524 6
139.61609 5
142.04359 2
143.21593 6
143.22704 3
148.6126 5
148.61985 2
152.23393 4
154.44627 9
154.45743 5
155.14971 4
156.66888 7
156.83966 2
156.8504 2
156.93884 6
156.9448 3
157.64953 2
159.53224 11
159.55344 2
160.60764 19
161.90157 26
161.92035 2
162.19649 2
165.94368 3
168.4732 4
168.48 4
170.0193 15
170.03021 4
176.96055 2
179.1814 2
180.05568 3
186.10173 9
186.11238 2
187.22811 5
188.69398 6
188.70504 4
189.43066 3
191.41308 4
195.0918 17
195.09985 5
196.64307 10
199.00603 7
199.01476 2
199.48549 2
200.79032 5
202.64388 13
204.56053 10
204.56741 9
204.639 4
205.52348 24
205.53571 10
205.55661 3
206.06677 2
206.49076 3
207.63581 11
210.5622 13
210.56975 11
211.01844 4
211.02713 5
214.36181 6
216.39139 8
217.13163 2
217.29453 16
217.30702 10
218.37308 4
219.35528 5
221.29363 6
222.37647 6
227.34504 4
227.82859 5
228.16395 3
228.23605 3
231.19228 3
232.18728 3
232.19325 4
232.81323 3
234.44172 10
235.40031 6
235.4103 5
235.42228 2
242.40557 9
243.71199 59
243.74021 3
246.13306 12
246.39891 5
248.67948 3
250.35127 7
250.45525 8
252.23267 4
252.243 2
256.96871 16
256.977 8
260.32543 8
260.33454 2
261.82945 4
265.08546 14
265.99289 14
266.00151 4
266.0168 3
267.58338 30
267.60409 3
267.61175 3
272.63528 4
272.64277 5
273.24403 4
273.87794 9
274.05187 14
274.25123 3
275.28131 26
275.52695 3
275.99104 4
276.12814 3
278.96191 4
278.9726 5
279.48787 17
279.5022 3
280.79127 7
280.8007 7
281.87964 12
283.98675 8
284.02295 2
286.49796 3
288.507 50
288.52026 11
288.52955 4
288.54857 4
289.04686 7
289.71541 5
290.24206 2
291.01094 3
294.12121 16
294.13482 7
296.00963 3
297.71519 5
299.51346 2
301.08815 2
301.16531 13
303.29723 19
304.3535 20
308.4105 12
312.14816 7
312.92852 22
316.65586 3
317.54202 4
319.0638 3
327.78658 3
330.53435 16
330.54818 8
333.50685 18
333.51959 5
334.75023 19
335.82982 45
335.84571 13
342.10632 7
342.12201 2
347.04305 2
350.40389 12
351.52888 5
353.20774 2
357.02923 8
360.30804 3
360.74043 3
363.81233 17
363.82592 7
364.9007 8
366.20362 33
366.21867 10
366.23479 2
367.13471 3
368.11277 32
368.12479 8
375.00473 3
378.90748 8
380.82833 14
381.74648 4
381.7722 3
383.36107 10
383.3733 3
385.04037 4
386.76012 17
389.11985 3
398.03867 2
398.60638 7
400.13326 8
400.1442 2
403.06811 3
405.25412 2
405.53282 8
406.23349 28
406.2489 12
406.30284 2
413.57716 5
413.83507 8
416.14299 4
419.75375 3
420.60702 15
420.62492 6
420.73036 2
427.75346 2
427.76477 2
428.79086 18
430.57223 22
430.59211 3
430.77578 13
430.79304 4
431.45844 5
431.51391 4
432.81262 12
432.82822 2
434.70361 2
434.73865 2
435.15777 4
436.41179 4
442.33026 3
442.34133 3
446.12991 14
454.26155 5
455.89594 2
456.69954 4
463.81348 54
463.85366 2
467.16729 4
467.4317 8
467.71668 13
470.07942 50
470.09464 13
470.93679 15
471.41771 3
473.00739 6
473.02351 2
474.02948 31
474.04492 8
476.0007 4
476.23245 2
482.41532 15
485.9392 3
485.98544 6
485.99664 2
487.24929 23
487.26848 9
491.14259 2
493.25148 34
493.27073 5
493.28486 3
495.03876 3
495.27951 25
495.29816 11
495.49639 50
495.51736 8
496.54795 2
510.26533 67
510.38086 2
511.45066 2
511.84573 6
515.52966 3
516.41065 3
517.397 2
518.17783 8
518.71156 2
521.55159 4
522.01613 83
522.14661 2
523.33982 7
523.98451 3
523.99638 3
529.25144 5
529.27337 2
532.73683 4
534.34015 5
534.7316 13
534.74998 5
536.71263 5
536.72349 5
537.78772 14
539.709 13
539.72351 5
539.76656 2
542.07974 4
543.22303 12
543.24592 3
545.70093 8
551.51762 7
554.10732 4
556.63648 2
557.55724 16
559.90189 26
559.92389 4
565.83626 16
570.29452 4
570.5967 3
573.39836 3
573.81243 4
575.16632 8
579.22564 100
579.24449 36
579.26566 6
579.28434 5
579.43701 2
579.46333 4
580.56835 5
585.18738 4
589.33275 3
590.67546 11
590.68902 4
598.4587 2
598.98016 22
603.89768 5
603.92346 3
604.9079 2
606.50588 13
606.54455 2
613.50409 4
613.98153 6
617.23157 10
618.21547 10
619.25019 2
621.91046 33
621.93076 11
621.97784 3
624.26928 7
627.63522 2
629.27612 14
629.29743 3
629.31506 2
631.26041 5
634.0023 3
635.21235 4
635.33363 5
637.56098 18
637.57354 22
640.95359 5
641.01404 10
645.05811 9
645.7917 36
645.8114 5
648.35175 4
649.46642 5
650.66116 7
650.67112 5
652.05247 24
652.07359 9
654.06822 2
654.39419 39
654.46141 3
655.54282 8
659.7287 27
659.75051 12
661.32259 3
661.57665 3
664.60416 14
664.6321 5
671.89149 3
674.02343 13
674.03545 5
680.5347 6
685.50869 3
690.14677 7
692.22923 75
692.24976 16
692.28264 6
698.03671 6
702.46684 21
702.90851 7
719.37304 2
720.88934 4
723.30174 7
723.31644 4
723.94461 13
723.96006 7
724.7809 7
729.58292 5
729.63987 4
730.48111 3
732.1511 3
734.2185 6
734.22949 8
740.33113 4
742.5955 9
743.27393 6
747.92728 20
747.94758 3
747.96022 2
750.35007 3
754.92016 2
758.62592 9
764.28441 9
770.63664 35
770.65778 15
770.70135 5
781.36203 23
781.37851 4
782.05651 4
782.15698 26
782.17303 9
798.13776 10
799.33971 6
802.75668 9
802.78102 3
803.51805 8
809.64584 4
817.44287 19
817.51441 5
821.8589 15
821.93279 2
823.50758 6
823.52136 5
838.08993 10
845.5078 13
845.52674 2
845.69264 17
851.35168 16
861.3741 13
862.25812 8
871.18925 15
871.20874 12
873.68114 23
874.60258 7
877.31113 8
877.33426 4
878.16802 4
882.05668 6
883.27317 6
889.32062 3
889.33692 2
898.96881 10
898.9994 2
899.81258 3
903.72971 35
903.77685 2
903.80032 5
904.74677 82
904.79579 7
904.82084 7
905.56035 10
910.41488 15
910.43352 3
918.22461 15
918.24911 7
919.33208 3
920.64412 17
920.67128 4
921.74901 3
924.99715 3
926.48422 2
932.49466 5
932.51301 3
933.33002 4
933.34413 10
933.4004 2
935.71748 3
938.6516 6
938.66782 5
939.13686 8
945.1682 2
945.18447 3
949.78232 5
953.16365 9
958.53119 2
966.14827 8
972.57001 2
973.30448 5
976.01723 10
976.04869 3
977.24951 4
980.09219 3
981.5043 5
981.55116 7
981.72686 17
981.75471 7
983.18998 2
986.07316 4
988.59572 20
988.63062 5
991.95056 2
998.53668 5

NAME: D-Sorbitol
PRECURSORMZ: 181.07179
PRECURSORTYPE: [M-H]-
FORMULA: C6H14O6
RETENTIONTIME: 0.331
IONMODE: Negative
COMMENT: Spectra extracted with MS2extract R package
INCHIKEY: FBPFZTCFMRRESA-JGWLITMVSA-N
SMILES: C(C(C(C(C(CO)O)O)O)O)O
CCS: 
COLLISIONENERGY: 20eV
INSTRUMENTTYPE: ESI-QTOF
Num Peaks: 8
101.02472 100
113.02435 16
115.03983 2
119.03504 3
121.05048 2
131.03469 2
163.06079 3
181.07143 12

NAME: D-Sorbitol
PRECURSORMZ: 181.07179
PRECURSORTYPE: [M-H]-
FORMULA: C6H14O6
RETENTIONTIME: 0.333
IONMODE: Negative
COMMENT: Spectra extracted with MS2extract R package
INCHIKEY: FBPFZTCFMRRESA-JGWLITMVSA-N
SMILES: C(C(C(C(C(CO)O)O)O)O)O
CCS: 
COLLISIONENERGY: 40eV
INSTRUMENTTYPE: ESI-QTOF
Num Peaks: 485
100.71572 2
101.02395 100
101.17807 4
101.3023 2
101.3568 2
102.8066 2
103.20494 2
104.21994 7
104.79701 2
106.13619 3
106.14747 2
108.02469 15
108.89352 2
112.52991 2
113.02315 11
117.96799 2
118.38772 2
118.47785 2
119.61446 2
119.88618 3
123.71235 2
128.24824 2
129.59135 4
131.5012 2
133.43753 2
136.00813 2
136.87716 2
137.62256 2
138.91363 2
139.6235 2
141.01197 2
142.58213 3
143.58741 2
144.0764 2
145.19568 2
145.90025 2
147.17605 2
148.15176 2
149.19151 2
149.2193 4
150.53519 2
151.63385 2
151.71041 5
151.735 2
153.33345 2
158.63781 2
159.15702 2
163.35199 4
163.7129 5
166.8777 4
169.56321 2
170.68407 2
175.15712 2
176.11936 2
177.43587 5
177.80303 2
181.15324 2
181.76598 2
185.98645 2
186.8047 3
192.68167 2
192.76546 8
192.88382 4
194.14739 2
194.30203 2
195.77364 3
198.48403 3
198.94402 2
201.14181 7
203.05703 2
205.62329 2
205.94734 2
210.57458 2
211.21318 5
212.22741 2
212.82578 2
213.40638 3
214.42945 2
219.60802 3
220.31093 3
223.67868 4
227.9935 2
231.38795 3
232.96151 3
233.73023 2
238.24219 7
238.53948 6
239.46463 4
239.63138 2
241.29246 2
241.47512 2
242.8104 2
243.57567 3
243.65195 3
246.01905 2
248.38999 2
250.44955 3
253.24799 2
256.20672 3
260.05036 8
261.01922 2
261.87979 2
266.30917 4
266.4906 2
267.2292 2
271.40933 2
272.08631 2
272.80327 5
274.28094 5
279.68006 3
280.70608 2
281.3645 2
285.4153 2
294.65979 3
301.15227 2
301.39515 3
309.43704 2
315.11294 2
316.71481 2
317.97804 2
320.83186 2
321.40133 2
322.39672 2
323.71446 2
325.83762 2
326.89131 7
329.13428 2
329.51404 2
330.0863 6
332.14783 5
332.32389 2
333.97857 2
334.93193 2
337.34519 3
339.88819 2
345.67451 3
347.0085 2
350.84624 2
355.34839 5
357.04061 2
361.22018 2
364.37684 2
364.57557 2
370.7596 4
370.89608 3
372.08595 2
373.3387 2
375.24896 3
389.21062 2
389.75182 2
394.04506 3
394.55886 4
395.43368 5
397.34545 3
399.83258 3
401.27172 2
401.92675 4
404.82046 9
408.1235 8
409.25749 2
409.9479 3
414.98907 2
417.85668 3
420.88405 2
426.1649 2
426.19437 2
430.70915 4
430.89403 2
431.70001 2
432.72719 2
433.23212 2
441.90266 5
443.6286 2
446.37212 2
446.72316 2
450.56931 2
452.82399 4
454.74659 2
455.60817 2
457.00507 2
468.5218 5
468.81527 2
470.38248 2
481.46336 4
483.74988 2
485.96019 3
487.38214 2
487.42217 3
490.3011 2
490.70978 2
493.99667 2
501.408 3
504.87479 2
506.01263 2
506.1728 3
510.78992 3
512.29359 2
512.4805 2
519.84852 2
530.194 2
533.75645 2
537.4054 3
537.7365 2
540.74711 4
542.55122 2
543.79913 2
544.43649 2
545.31662 3
550.77806 3
553.48495 2
555.75489 2
556.51237 3
557.10575 2
557.49203 2
559.0019 2
560.86859 3
561.99981 3
568.74579 2
572.44173 2
574.94605 2
576.5916 3
577.66252 3
580.11406 5
585.6149 2
589.939 2
590.54056 4
594.17006 2
595.254 2
596.06393 2
596.29948 2
600.36547 8
600.8355 3
605.1021 3
607.96252 2
618.40589 2
629.9601 2
630.88564 2
633.73505 2
633.83926 2
634.29766 3
635.24998 2
651.06203 3
651.22754 2
651.99189 2
652.04693 2
654.04411 4
662.662 6
667.95216 2
668.80592 3
669.80497 2
669.93938 2
671.92071 2
675.23506 2
677.3388 3
679.21749 2
685.15154 2
688.90436 2
690.90732 3
691.73863 2
693.23158 3
704.39717 2
711.57891 4
715.5217 5
719.79128 3
725.49197 2
725.68318 2
726.87754 2
732.0771 2
735.72512 2
748.31526 2
748.43554 2
749.89402 2
754.97719 4
755.55723 2
756.58091 2
758.92602 2
761.79221 2
764.51277 2
767.46583 3
768.59348 3
774.36699 2
775.52243 2
779.71703 2
783.31288 3
790.4359 2
790.68822 2
795.40078 2
797.74486 3
800.15962 3
806.06198 2
811.36393 2
822.8625 2
823.86097 6
835.21395 2
840.61936 2
840.82399 5
843.20952 2
849.02841 3
852.05828 3
858.46832 2
859.38381 3
867.58573 2
869.56521 3
879.79856 2
889.02586 2
891.47013 2
896.09438 2
897.34073 3
899.78982 2
900.55764 2
901.08488 2
904.45059 2
912.16911 5
912.43665 2
914.40829 2
916.26293 2
916.52478 4
922.69443 2
925.88313 2
932.05323 4
932.94287 2
942.34636 3
945.30224 2
952.36384 5
952.46867 3
952.5836 4
959.38665 5
974.22327 2
981.33492 2
986.55722 3
989.75382 6
990.09089 3
990.24077 2
991.86134 2
996.0917 2
1003.05149 2
1014.97507 2
1021.03943 2
1023.79504 2
1025.39494 2
1029.57978 3
1030.31751 4
1035.30539 2
1036.42456 2
1039.20188 3
1044.67971 2
1050.50886 3
1050.9763 2
1051.03153 2
1055.93996 3
1065.44781 2
1066.49089 4
1072.84711 2
1078.5963 3
1079.05258 3
1080.08359 3
1082.79235 5
1084.55852 2
1086.07649 3
1088.87425 2
1096.27624 2
1105.09053 2
1108.22208 2
1110.88491 2
1112.59598 4
1116.49019 2
1119.55002 2
1120.8742 3
1124.28951 2
1124.62527 2
1141.93658 2
1145.11133 2
1146.45291 2
1151.23291 2
1154.33033 5
1154.42415 3
1155.39355 2
1158.72217 2
1162.90585 2
1165.01373 2
1165.30803 2
1166.07949 3
1169.30704 3
1179.98241 4
1181.46916 2
1181.65105 2
1181.69569 2
1193.10156 2
1209.73827 2
1211.48463 2
1212.53144 2
1220.61616 2
1224.66778 2
1240.39796 2
1248.13837 2
1248.31352 2
1249.50468 2
1251.51819 2
1257.07411 2
1267.52056 2
1275.96453 2
1277.40656 2
1277.53974 2
1279.554 6
1284.32516 2
1299.95313 3
1305.31826 2
1309.60448 2
1312.83087 3
1315.48808 2
1319.4154 3
1323.88867 2
1325.50817 4
1325.98826 2
1328.96686 2
1330.09631 2
1330.3725 2
1336.01469 2
1344.67762 2
1345.0528 2
1348.91747 3
1351.55824 3
1361.91987 2
1362.6223 2
1362.78216 2
1362.89729 2
1366.4996 3
1376.20076 2
1388.98501 2
1389.37339 2
1392.55915 3
1397.33114 5
1398.22677 2
1400.57938 2
1409.26012 2
1420.47035 3
1421.68607 2
1427.59227 2
1428.30469 2
1429.30104 2
1434.9185 2
1437.90417 3
1442.58086 2
1447.61044 2
1447.67036 2
1448.14851 3
1451.16527 3
1452.83078 2
1461.9655 2
1463.34909 2
1465.17187 2
1466.50295 2
1466.55698 2
1466.88982 3
1470.28869 3
1473.6102 2
1491.72209 2
1501.94945 6
1502.71292 2
1516.70918 2
1523.8945 2
1525.33538 4
1535.26059 2
1541.98869 4
1548.11067 2
1555.13458 2
1556.88928 2
1567.57986 2
1578.85565 2
1583.63321 2
1594.77808 2
1601.07175 2
1602.35087 2
1606.64394 2
1620.20536 2
1623.36639 2
1624.62227 8
1629.70469 2
1630.60407 3
1666.56979 3
1668.97391 7
1680.65423 2
1681.11644 2
1686.74743 2
1694.52082 3

NAME: Ellagic acid
PRECURSORMZ: 300.99911
PRECURSORTYPE: [M-H]-
FORMULA: C14H6O8
RETENTIONTIME: 2.84
IONMODE: Negative
COMMENT: Spectra extracted with MS2extract R package
INCHIKEY: AFSDNFLWKVMVRB-UHFFFAOYSA-N
SMILES: C1=C2C3=C(C(=C1O)O)OC(=O)C4=CC(=C(C(=C43)OC2=O)O)O
CCS: 
COLLISIONENERGY: 20eV
INSTRUMENTTYPE: ESI-QTOF
Num Peaks: 3
229.01382 2
257.00871 2
300.99897 100

NAME: Ellagic acid
PRECURSORMZ: 300.99911
PRECURSORTYPE: [M-H]-
FORMULA: C14H6O8
RETENTIONTIME: 2.841
IONMODE: Negative
COMMENT: Spectra extracted with MS2extract R package
INCHIKEY: AFSDNFLWKVMVRB-UHFFFAOYSA-N
SMILES: C1=C2C3=C(C(=C1O)O)OC(=O)C4=CC(=C(C(=C43)OC2=O)O)O
CCS: 
COLLISIONENERGY: 40eV
INSTRUMENTTYPE: ESI-QTOF
Num Peaks: 57
101.0396 14
103.01871 2
105.03421 5
115.01906 3
116.02661 4
117.03458 38
119.0135 2
127.01882 6
129.03457 31
131.01414 2
132.02148 6
133.02941 19
141.03458 3
143.01424 7
144.02145 10
145.02966 100
151.00343 2
155.01361 5
156.02199 6
157.0296 23
159.00847 2
160.01647 10
161.02435 28
171.00886 13
172.01662 20
173.02451 55
175.00397 2
183.00887 4
184.01659 10
185.02459 35
188.01133 6
189.01944 23
199.00322 21
200.01162 42
201.01935 39
212.01125 5
213.01903 2
216.00655 23
217.01417 20
226.99879 17
228.00644 27
229.0142 25
240.00717 2
242.99317 5
244.00117 14
245.00896 28
254.99322 6
256.00046 4
257.00884 5
270.98797 4
271.99629 3
273.00322 2
282.98841 4
283.99634 58
298.98294 3
299.99129 63
300.99877 30

NAME: Eriocitrin
PRECURSORMZ: 595.16632
PRECURSORTYPE: [M-H]-
FORMULA: C27H32O15
RETENTIONTIME: 2.717
IONMODE: Negative
COMMENT: Spectra extracted with MS2extract R package
INCHIKEY: OMQADRGFMLGFJF-MNPJBKLOSA-N
SMILES: CC1C(C(C(C(O1)OCC2C(C(C(C(O2)OC3=CC(=C4C(=O)CC(OC4=C3)C5=CC(=C(C=C5)O)O)O)O)O)O)O)O)O
CCS: 
COLLISIONENERGY: 20eV
INSTRUMENTTYPE: ESI-QTOF
Num Peaks: 7
135.04515 3
151.00336 19
287.05768 100
288.0595 8
459.11452 4
595.16682 26
596.17044 3

NAME: Eriocitrin
PRECURSORMZ: 595.16632
PRECURSORTYPE: [M-H]-
FORMULA: C27H32O15
RETENTIONTIME: 2.718
IONMODE: Negative
COMMENT: Spectra extracted with MS2extract R package
INCHIKEY: OMQADRGFMLGFJF-MNPJBKLOSA-N
SMILES: CC1C(C(C(C(O1)OCC2C(C(C(C(O2)OC3=CC(=C4C(=O)CC(OC4=C3)C5=CC(=C(C=C5)O)O)O)O)O)O)O)O)O
CCS: 
COLLISIONENERGY: 40eV
INSTRUMENTTYPE: ESI-QTOF
Num Peaks: 8
107.01392 4
125.02446 4
135.04507 36
151.00446 100
152.00702 3
175.00334 6
193.01407 2
287.0561 23

NAME: Eriodictyol 7-O-glucoside
PRECURSORMZ: 449.10889
PRECURSORTYPE: [M-H]-
FORMULA: C21H22O11
RETENTIONTIME: 2.818
IONMODE: Negative
COMMENT: Spectra extracted with MS2extract R package
INCHIKEY: RAFHNDRXYHOLSH-SFTVRKLSSA-N
SMILES: OC1=C2C(O[C@@H](CC2=O)C3=CC(O)=C(O)C=C3)=CC(O[C@@H]4O[C@@H]([C@H]([C@@H]([C@H]4O)O)O)CO)=C1
CCS: 
COLLISIONENERGY: 20eV
INSTRUMENTTYPE: ESI-QTOF
Num Peaks: 8
125.02421 2
135.04504 10
151.004 52
151.03242 2
175.00347 6
287.05743 100
287.09504 4
288.05945 2

NAME: Eriodictyol 7-O-glucoside
PRECURSORMZ: 449.10889
PRECURSORTYPE: [M-H]-
FORMULA: C21H22O11
RETENTIONTIME: 2.809
IONMODE: Negative
COMMENT: Spectra extracted with MS2extract R package
INCHIKEY: RAFHNDRXYHOLSH-SFTVRKLSSA-N
SMILES: OC1=C2C(O[C@@H](CC2=O)C3=CC(O)=C(O)C=C3)=CC(O[C@@H]4O[C@@H]([C@H]([C@@H]([C@H]4O)O)O)CO)=C1
CCS: 
COLLISIONENERGY: 40eV
INSTRUMENTTYPE: ESI-QTOF
Num Peaks: 16
65.00331 8
83.01385 4
107.01403 17
109.02963 4
125.02452 5
131.0142 2
135.04579 98
135.05304 5
135.07262 3
151.00437 100
151.03279 3
161.02489 2
164.01207 2
165.01976 2
175.0041 6
287.05618 3

NAME: Eriodictyol 7-O-glucoside
PRECURSORMZ: 449.10889
PRECURSORTYPE: [M-H]-
FORMULA: C21H22O11
RETENTIONTIME: 2.805
IONMODE: Negative
COMMENT: Spectra extracted with MS2extract R package
INCHIKEY: RAFHNDRXYHOLSH-SFTVRKLSSA-N
SMILES: OC1=C2C(O[C@@H](CC2=O)C3=CC(O)=C(O)C=C3)=CC(O[C@@H]4O[C@@H]([C@H]([C@@H]([C@H]4O)O)O)CO)=C1
CCS: 
COLLISIONENERGY: 60eV
INSTRUMENTTYPE: ESI-QTOF
Num Peaks: 16
63.02392 4
65.0032 29
65.00902 2
83.01389 11
107.01387 23
107.021 2
107.05024 2
108.0219 2
109.02969 4
125.02438 2
131.01424 2
134.03754 9
135.04551 100
135.05218 5
135.07051 3
151.00388 18

NAME: Eriodictyol 7-O-glucoside
PRECURSORMZ: 449.10889
PRECURSORTYPE: [M-H]-
FORMULA: C21H22O11
RETENTIONTIME: 2.809
IONMODE: Negative
COMMENT: Spectra extracted with MS2extract R package
INCHIKEY: RAFHNDRXYHOLSH-SFTVRKLSSA-N
SMILES: OC1=C2C(O[C@@H](CC2=O)C3=CC(O)=C(O)C=C3)=CC(O[C@@H]4O[C@@H]([C@H]([C@@H]([C@H]4O)O)O)CO)=C1
CCS: 
COLLISIONENERGY: 80eV
INSTRUMENTTYPE: ESI-QTOF
Num Peaks: 23
57.03434 3
63.02387 7
65.0032 60
65.00898 4
68.99801 2
79.05543 4
83.01391 15
89.03971 4
91.05551 2
93.03478 2
103.01946 2
106.0424 2
107.01392 12
107.05049 7
108.02181 4
109.02947 4
117.03454 4
133.0296 3
134.03761 38
134.04592 3
135.04549 100
135.05287 7
151.00384 3

NAME: Esculetin
PRECURSORMZ: 177.0193
PRECURSORTYPE: [M-H]-
FORMULA: C9H6O4
RETENTIONTIME: 2.376
IONMODE: Negative
COMMENT: Spectra extracted with MS2extract R package
INCHIKEY: ILEDWLMCKZNDJK-UHFFFAOYSA-N
SMILES: OC1=C(O)C=C(C=CC(O2)=O)C2=C1
CCS: 
COLLISIONENERGY: 20eV
INSTRUMENTTYPE: ESI-QTOF
Num Peaks: 17
65.03981 2
77.04001 29
79.01916 5
81.03487 16
89.04023 61
89.06208 2
93.03491 15
105.03539 91
105.05899 3
107.01428 12
109.02996 3
121.03002 13
133.03063 100
133.05707 4
149.0251 20
177.0205 66
177.05116 3

NAME: Esculetin
PRECURSORMZ: 177.0193
PRECURSORTYPE: [M-H]-
FORMULA: C9H6O4
RETENTIONTIME: 2.364
IONMODE: Negative
COMMENT: Spectra extracted with MS2extract R package
INCHIKEY: ILEDWLMCKZNDJK-UHFFFAOYSA-N
SMILES: OC1=C(O)C=C(C=CC(O2)=O)C2=C1
CCS: 
COLLISIONENERGY: 40eV
INSTRUMENTTYPE: ESI-QTOF
Num Peaks: 38
51.02392 55
51.02919 3
53.00314 4
53.03955 17
63.02409 4
65.00321 13
65.03959 47
65.04547 3
67.01883 35
67.02458 3
68.99818 5
75.02399 12
77.03967 53
77.04599 3
79.01896 67
79.0254 4
81.03459 26
81.04111 2
82.00604 13
88.03206 3
89.03975 100
89.04639 6
91.01902 4
93.03464 38
93.0417 2
95.01357 4
103.01921 5
104.02676 9
105.03465 27
105.0416 2
107.01432 5
108.02193 4
109.02982 3
119.01405 2
120.02161 2
121.02974 7
133.02978 7
149.02435 3

NAME: Esculetin
PRECURSORMZ: 177.0193
PRECURSORTYPE: [M-H]-
FORMULA: C9H6O4
RETENTIONTIME: 2.363
IONMODE: Negative
COMMENT: Spectra extracted with MS2extract R package
INCHIKEY: ILEDWLMCKZNDJK-UHFFFAOYSA-N
SMILES: OC1=C(O)C=C(C=CC(O2)=O)C2=C1
CCS: 
COLLISIONENERGY: 60eV
INSTRUMENTTYPE: ESI-QTOF
Num Peaks: 33
50.01552 4
51.02356 100
51.02899 7
53.00286 9
53.03925 7
55.01841 2
62.01574 4
63.02346 8
64.03145 3
65.00277 46
65.00873 3
65.03917 51
65.04514 4
67.01848 38
67.02429 3
68.99766 9
73.00821 5
75.02331 12
75.02941 2
77.0393 6
78.0104 2
79.01853 23
79.02464 3
81.034 3
82.00564 11
88.03145 3
89.03906 25
89.04622 3
91.01825 4
93.03425 6
103.01792 2
104.02638 2
119.01332 2

NAME: Esculetin
PRECURSORMZ: 177.0193
PRECURSORTYPE: [M-H]-
FORMULA: C9H6O4
RETENTIONTIME: 2.367
IONMODE: Negative
COMMENT: Spectra extracted with MS2extract R package
INCHIKEY: ILEDWLMCKZNDJK-UHFFFAOYSA-N
SMILES: OC1=C(O)C=C(C=CC(O2)=O)C2=C1
CCS: 
COLLISIONENERGY: 80eV
INSTRUMENTTYPE: ESI-QTOF
Num Peaks: 39
50.01567 16
51.02347 88
51.02887 9
51.0391 2
51.99464 3
53.00269 19
55.01826 6
61.00787 5
62.01552 18
62.02149 2
63.02372 16
63.02942 2
63.99489 8
64.03164 4
65.0027 100
65.00847 11
65.02182 2
65.03932 32
65.04574 3
67.0184 27
67.0242 2
68.99805 5
72.00037 3
73.00795 32
73.01535 2
73.52012 2
74.01532 4
75.02364 9
79.01826 4
82.0053 3
87.02376 2
89.03913 5
91.01824 3
93.03349 4
158.84658 3
296.33271 2
473.07267 2
755.01524 2
922.02831 2

NAME: Ferrulic acid
PRECURSORMZ: 193.0507
PRECURSORTYPE: [M-H]-
FORMULA: C10H10O4
RETENTIONTIME: 2.834
IONMODE: Negative
COMMENT: Spectra extracted with MS2extract R package
INCHIKEY: KSEBMYQBYZTDHS-HWKANZROSA-N
SMILES: COC1=C(C=CC(=C1)C=CC(=O)O)O
CCS: 
COLLISIONENERGY: 20eV
INSTRUMENTTYPE: ESI-QTOF
Num Peaks: 4
106.04242 2
133.03011 8
134.03789 100
178.02786 8

NAME: Ferrulic acid
PRECURSORMZ: 193.0507
PRECURSORTYPE: [M-H]-
FORMULA: C10H10O4
RETENTIONTIME: 2.84
IONMODE: Negative
COMMENT: Spectra extracted with MS2extract R package
INCHIKEY: KSEBMYQBYZTDHS-HWKANZROSA-N
SMILES: COC1=C(C=CC(=C1)C=CC(=O)O)O
CCS: 
COLLISIONENERGY: 40eV
INSTRUMENTTYPE: ESI-QTOF
Num Peaks: 8
104.02636 2
105.03419 6
106.04219 4
108.02139 4
115.01842 2
132.0215 15
133.02915 100
134.03704 10

NAME: Fisetin
PRECURSORMZ: 285.0405
PRECURSORTYPE: [M-H]-
FORMULA: C15H10O6
RETENTIONTIME: 3.223
IONMODE: Negative
COMMENT: Spectra extracted with MS2extract R package
INCHIKEY: XHEFDIBZLJXQHF-UHFFFAOYSA-N
SMILES: C1=CC(=C(C=C1C2=C(C(=O)C3=C(O2)C=C(C=C3)O)O)O)O
CCS: 
COLLISIONENERGY: 20eV
INSTRUMENTTYPE: ESI-QTOF
Num Peaks: 12
109.02958 2
121.02962 48
135.00879 100
149.02466 14
163.0036 30
211.03993 3
213.05552 3
229.05082 12
239.03446 2
241.05053 5
257.04546 6
285.04046 55

NAME: Fisetin
PRECURSORMZ: 285.0405
PRECURSORTYPE: [M-H]-
FORMULA: C15H10O6
RETENTIONTIME: 3.254
IONMODE: Negative
COMMENT: Spectra extracted with MS2extract R package
INCHIKEY: XHEFDIBZLJXQHF-UHFFFAOYSA-N
SMILES: C1=CC(=C(C=C1C2=C(C(=O)C3=C(O2)C=C(C=C3)O)O)O)O
CCS: 
COLLISIONENERGY: 40eV
INSTRUMENTTYPE: ESI-QTOF
Num Peaks: 30
107.01342 3
108.02131 8
109.02917 12
119.01309 2
121.02904 100
135.0086 39
143.05015 2
147.00806 2
148.01627 5
149.02387 7
155.04971 2
156.05763 2
157.06514 3
158.03686 2
159.04447 6
167.04952 4
171.04479 2
182.03684 5
183.04477 7
184.05256 2
185.06038 7
187.03969 2
195.0445 4
201.05554 2
210.03136 2
211.0398 11
227.03434 4
229.04999 4
239.03449 7
255.02933 3

NAME: Gallic acid
PRECURSORMZ: 169.0143
PRECURSORTYPE: [M-H]-
FORMULA: C7H6O5
RETENTIONTIME: 1.204
IONMODE: Negative
COMMENT: Spectra extracted with MS2extract R package
INCHIKEY: FFMYRWYMARPJCC-UHFFFAOYSA-N
SMILES: C1=CC=C(C=C1)COC(=O)C2=CC(=C3C(=C2)OC(O3)(C4=CC=CC=C4)C5=CC=CC=C5)O
CCS: 
COLLISIONENERGY: 20eV
INSTRUMENTTYPE: ESI-QTOF
Num Peaks: 4
107.01346 6
124.01627 10
125.02513 100
169.014 2

NAME: Gallic acid
PRECURSORMZ: 169.0143
PRECURSORTYPE: [M-H]-
FORMULA: C7H6O5
RETENTIONTIME: 1.216
IONMODE: Negative
COMMENT: Spectra extracted with MS2extract R package
INCHIKEY: FFMYRWYMARPJCC-UHFFFAOYSA-N
SMILES: C1=CC=C(C=C1)COC(=O)C2=CC(=C3C(=C2)OC(O3)(C4=CC=CC=C4)C5=CC=CC=C5)O
CCS: 
COLLISIONENERGY: 40eV
INSTRUMENTTYPE: ESI-QTOF
Num Peaks: 5
107.01347 5
108.02105 9
123.00838 63
124.01636 100
125.02401 21

NAME: Glucose
PRECURSORMZ: 179.05611
PRECURSORTYPE: [M-H]-
FORMULA: C6H12O6
RETENTIONTIME: 0.331
IONMODE: Negative
COMMENT: Spectra extracted with MS2extract R package
INCHIKEY: WQZGKKKJIJFFOK-GASJEMHNSA-N
SMILES: C(C1C(C(C(C(O1)O)O)O)O)O
CCS: 
COLLISIONENERGY: 20eV
INSTRUMENTTYPE: ESI-QTOF
Num Peaks: 209
100.40131 4
100.76117 2
100.77476 2
100.98021 6
101.02362 100
101.07015 2
102.07533 2
104.2524 2
104.99282 3
105.90927 2
106.30256 2
106.36781 3
106.69956 2
106.89743 3
106.93299 4
107.04897 7
113.02417 97
113.0737 2
113.2719 2
113.46612 2
113.47977 2
113.61055 3
114.33056 3
117.42116 2
118.19713 2
118.89877 6
119.03319 6
120.26808 2
123.87103 2
133.08623 2
133.15121 3
134.03681 3
134.50207 2
134.87417 3
134.91295 3
134.98918 8
135.04494 58
141.75959 2
149.36469 2
150.13725 4
150.74042 4
164.8715 3
173.54386 2
176.43355 3
189.99051 2
190.14741 2
207.42727 2
209.13417 2
210.49887 2
219.10555 3
220.67786 3
234.96085 2
250.61585 3
260.91154 2
265.83879 2
270.54757 2
272.34039 2
277.28104 5
278.9027 4
279.36945 3
280.53645 2
290.11264 2
290.47243 2
294.21553 2
295.7691 2
301.01908 3
303.26038 3
303.85654 2
314.24892 2
319.99573 2
320.74351 2
322.36047 5
327.87481 4
329.07806 2
333.62157 4
335.70677 3
342.82091 2
349.57887 4
359.08183 2
361.02417 3
365.36023 4
367.64369 2
369.96702 5
371.37473 2
373.74174 3
374.31267 2
392.45325 4
396.15437 2
408.15815 4
408.56761 3
441.18778 2
442.07736 3
453.56839 2
458.84505 2
465.75126 2
477.28839 2
481.53518 2
484.46052 2
487.62987 6
491.48659 3
508.16166 3
511.74932 6
516.52403 6
516.82964 2
526.57887 2
531.51568 3
557.15405 2
567.82309 2
568.1069 3
574.51404 2
585.49345 2
588.40527 2
597.62627 2
601.08852 2
611.21507 2
652.87893 2
660.1833 3
660.51631 2
666.18424 2
672.4638 3
681.16808 2
681.74912 2
700.33523 5
700.9784 2
704.24846 2
710.75028 3
715.27182 2
741.76401 2
749.66227 3
784.14005 2
784.72964 4
786.16407 3
788.8691 2
791.27347 2
814.62044 2
828.12003 2
835.73224 2
848.06225 5
854.17517 4
864.69777 3
869.84743 2
878.46846 2
882.53076 4
890.7364 3
897.78624 3
899.13373 2
918.187 2
921.47589 2
933.98459 2
951.4513 2
952.08853 3
952.69112 3
958.18606 2
971.50188 3
978.02963 2
979.41817 4
988.01915 2
1001.23643 2
1009.86755 2
1031.23567 2
1036.47595 2
1040.86119 2
1042.16294 3
1044.35686 6
1091.68852 3
1105.70625 2
1125.9547 2
1126.27402 2
1131.37612 2
1136.79883 2
1149.31965 4
1157.03778 2
1161.22968 2
1168.51415 2
1178.3311 6
1199.8384 2
1219.24485 2
1269.99094 3
1291.48811 2
1323.89684 3
1342.66609 3
1344.94115 2
1360.65075 2
1367.47687 2
1368.21258 2
1374.1733 2
1388.04097 2
1417.36356 2
1426.27298 3
1428.60402 2
1436.17568 2
1459.88387 2
1469.34025 2
1482.34233 2
1484.38846 3
1485.05979 4
1505.81631 3
1512.26682 2
1525.05736 2
1531.64493 2
1554.74867 2
1599.25063 2
1630.41791 4
1633.80607 2
1639.18381 2
1651.17071 4
1655.33517 2
1658.0265 3
1690.16009 2

NAME: Guaijaverin
PRECURSORMZ: 433.07761
PRECURSORTYPE: [M-H]-
FORMULA: C20H18O11
RETENTIONTIME: 2.944
IONMODE: Negative
COMMENT: Spectra extracted with MS2extract R package
INCHIKEY: PZZRDJXEMZMZFD-IEGSVRCHSA-N
SMILES: OC1=C2C(OC(C3=CC=C(O)C(O)=C3)=C(O[C@H]4[C@H](O)[C@@H](O)[C@@H](O)CO4)C2=O)=CC(O)=C1
CCS: 
COLLISIONENERGY: 20eV
INSTRUMENTTYPE: ESI-QTOF
Num Peaks: 5
271.02499 3
300.02928 100
300.06735 4
301.03572 18
433.07835 21

NAME: Guaijaverin
PRECURSORMZ: 433.07761
PRECURSORTYPE: [M-H]-
FORMULA: C20H18O11
RETENTIONTIME: 2.932
IONMODE: Negative
COMMENT: Spectra extracted with MS2extract R package
INCHIKEY: PZZRDJXEMZMZFD-IEGSVRCHSA-N
SMILES: OC1=C2C(OC(C3=CC=C(O)C(O)=C3)=C(O[C@H]4[C@H](O)[C@@H](O)[C@@H](O)CO4)C2=O)=CC(O)=C1
CCS: 
COLLISIONENERGY: 40eV
INSTRUMENTTYPE: ESI-QTOF
Num Peaks: 28
107.01418 2
108.02203 3
109.02979 2
121.02965 2
135.0093 2
148.0167 2
151.00411 11
163.00424 4
178.9992 3
211.03987 2
216.04261 2
226.0278 3
227.03504 4
243.03045 21
243.04055 2
245.04569 2
254.02227 5
255.03055 47
255.03897 4
255.06458 2
271.02583 100
271.03539 5
271.06348 5
272.03279 3
299.02007 3
300.02831 64
300.0644 3
301.03541 5

NAME: Guaijaverin
PRECURSORMZ: 433.07761
PRECURSORTYPE: [M-H]-
FORMULA: C20H18O11
RETENTIONTIME: 2.937
IONMODE: Negative
COMMENT: Spectra extracted with MS2extract R package
INCHIKEY: PZZRDJXEMZMZFD-IEGSVRCHSA-N
SMILES: OC1=C2C(OC(C3=CC=C(O)C(O)=C3)=C(O[C@H]4[C@H](O)[C@@H](O)[C@@H](O)CO4)C2=O)=CC(O)=C1
CCS: 
COLLISIONENERGY: 60eV
INSTRUMENTTYPE: ESI-QTOF
Num Peaks: 54
63.02374 4
65.00298 8
83.01377 3
91.01899 3
93.03439 2
107.01364 9
108.0215 17
109.02933 6
120.02156 3
121.02927 3
133.0299 2
135.00896 5
143.05021 3
145.02976 2
147.00831 2
148.01674 12
151.00368 4
155.0502 3
157.02936 2
159.04524 3
163.0035 4
164.0113 3
171.04547 6
173.0242 2
175.03946 2
182.03763 2
183.04528 6
185.02439 2
187.0401 6
197.02515 3
198.03201 4
199.04023 19
199.05025 2
201.01948 8
203.03532 4
211.04024 7
213.01959 3
214.02708 2
215.0352 13
226.02746 7
227.03519 22
227.0461 2
229.01449 6
242.02217 4
243.03024 54
243.04041 4
254.02185 2
255.03023 41
255.04112 4
271.02537 100
271.03408 8
271.06063 4
299.02011 4
300.02772 2

NAME: Guaijaverin
PRECURSORMZ: 433.07761
PRECURSORTYPE: [M-H]-
FORMULA: C20H18O11
RETENTIONTIME: 2.941
IONMODE: Negative
COMMENT: Spectra extracted with MS2extract R package
INCHIKEY: PZZRDJXEMZMZFD-IEGSVRCHSA-N
SMILES: OC1=C2C(OC(C3=CC=C(O)C(O)=C3)=C(O[C@H]4[C@H](O)[C@@H](O)[C@@H](O)CO4)C2=O)=CC(O)=C1
CCS: 
COLLISIONENERGY: 80eV
INSTRUMENTTYPE: ESI-QTOF
Num Peaks: 157
51.02384 3
53.03926 2
63.02364 40
63.02924 3
65.00293 91
65.00886 8
65.0394 7
67.01847 2
68.99793 4
75.02428 3
77.03897 2
79.01887 5
80.02681 3
81.03473 3
83.01368 11
89.03909 8
91.01876 23
91.02608 3
93.03439 10
95.01335 6
96.02263 2
101.03973 8
103.05495 4
105.03497 2
107.01366 61
107.02128 4
108.02167 92
108.02908 8
109.02928 34
109.03682 2
113.04031 5
115.05506 20
117.03444 21
117.04258 3
119.01345 16
119.02172 3
119.04975 2
120.02159 14
121.0288 6
124.01775 2
125.03942 9
127.05548 19
127.06312 2
129.03458 23
129.04267 2
130.04171 5
131.0504 15
132.02157 6
133.02946 17
133.03682 2
135.00896 19
135.01663 2
136.01734 2
137.02403 2
139.0553 4
141.03437 16
141.04352 2
142.04261 7
143.05039 78
143.05887 8
144.02196 3
145.02948 78
145.03803 6
146.03666 6
147.00887 11
147.04529 9
148.01671 40
148.02573 3
151.00381 5
153.03424 18
154.04246 19
154.05116 2
155.05023 31
155.0574 2
156.02182 5
157.02962 37
157.03885 3
158.03681 13
159.04552 33
159.05443 4
160.01644 2
161.02436 4
163.00398 18
164.01153 4
167.05012 12
169.02958 28
169.03886 3
170.03806 13
171.04541 78
171.05499 7
172.01723 7
173.02449 47
173.03272 6
174.03304 12
175.04019 16
175.05003 2
177.01946 2
181.02931 10
182.03741 39
182.04746 3
183.04513 53
183.055 6
184.0164 3
185.02467 28
185.0335 3
186.0316 13
187.04029 78
187.04977 8
189.01927 3
190.99968 5
197.02473 39
197.03401 4
198.03219 52
198.04235 5
199.04016 100
199.04985 10
200.01136 11
201.01949 67
201.02946 7
202.02716 9
203.03548 28
203.04576 3
209.02321 4
210.03239 11
211.04012 25
211.05029 2
213.01939 29
213.0306 3
214.0269 23
214.03674 3
215.03511 78
215.04527 8
225.01916 12
225.02874 2
226.02746 31
226.03805 3
226.99892 2
227.03548 61
227.04618 7
228.00491 2
229.01439 33
229.02505 3
237.0178 2
241.01387 3
242.02243 46
242.03353 4
243.03012 75
243.04042 7
253.01397 5
254.02242 4
255.03 29
255.04113 4
269.01023 2
270.01657 4
271.02504 56
271.03656 7
299.01963 2

NAME: Herbacetin
PRECURSORMZ: 301.03491
PRECURSORTYPE: [M-H]-
FORMULA: C15H10O7
RETENTIONTIME: 3.467
IONMODE: Negative
COMMENT: Spectra extracted with MS2extract R package
INCHIKEY: ZDOTZEDNGNPOEW-UHFFFAOYSA-N
SMILES: C1=CC(=CC=C1C2=C(C(=O)C3=C(O2)C(=C(C=C3O)O)O)O)O
CCS: 
COLLISIONENERGY: 20eV
INSTRUMENTTYPE: ESI-QTOF
Num Peaks: 6
201.05557 2
211.03993 2
229.05066 3
239.03468 2
255.02972 3
301.03564 100

NAME: Herbacetin
PRECURSORMZ: 301.03491
PRECURSORTYPE: [M-H]-
FORMULA: C15H10O7
RETENTIONTIME: 3.465
IONMODE: Negative
COMMENT: Spectra extracted with MS2extract R package
INCHIKEY: ZDOTZEDNGNPOEW-UHFFFAOYSA-N
SMILES: C1=CC(=CC=C1C2=C(C(=O)C3=C(O2)C(=C(C=C3O)O)O)O)O
CCS: 
COLLISIONENERGY: 40eV
INSTRUMENTTYPE: ESI-QTOF
Num Peaks: 108
103.05538 5
105.03429 12
107.01368 18
107.04978 3
108.02147 17
108.99249 2
109.02927 7
110.00089 26
111.00874 94
115.05521 2
117.03451 65
119.05021 15
120.99346 2
121.02923 3
122.00059 3
123.00872 61
124.01644 49
124.98766 2
125.0244 9
127.05506 3
129.03428 8
130.04235 28
131.05015 49
132.02164 18
133.0297 100
134.03613 2
135.00867 4
135.04414 4
136.01618 6
136.98798 31
137.02341 5
137.99534 3
139.00362 45
139.05478 4
141.03432 27
143.04996 26
145.02934 13
145.06535 5
147.0449 7
149.06037 2
151.00347 11
152.01149 23
153.02597 2
154.0423 8
155.05018 51
156.02209 2
156.05778 12
157.02938 60
157.0642 12
158.03721 20
159.04515 42
161.02417 4
161.06057 2
163.0035 2
164.98265 4
165.99032 5
166.99853 3
167.05007 19
169.0291 3
171.04503 23
172.05272 3
173.02445 3
173.06097 6
174.03214 8
175.03991 3
177.05568 2
178.99744 3
181.02984 2
182.03724 16
183.04505 45
184.05253 3
185.02418 6
185.05956 2
186.03262 2
187.04006 14
195.04491 2
198.03215 5
199.03968 15
200.04779 6
201.05535 24
202.02733 2
203.0347 13
206.99332 3
210.03207 11
211.04007 48
212.04736 2
213.01914 6
215.03442 7
216.04334 2
217.05047 4
226.02673 7
227.03494 53
228.04163 3
229.01402 3
229.05053 8
238.02687 2
239.03463 10
243.02971 19
244.03701 2
245.04543 3
254.02181 3
255.02974 50
256.03662 2
271.02453 18
282.01716 2
283.02385 6
300.02421 2
301.03512 12

NAME: Isoquercitrin
PRECURSORMZ: 463.0882
PRECURSORTYPE: [M-H]-
FORMULA: C21H20O12
RETENTIONTIME: 2.842
IONMODE: Negative
COMMENT: Spectra extracted with MS2extract R package
INCHIKEY: OVSQVDMCBVZWGM-LQSBFMDOSA-N
SMILES: C1=CC(=C(C=C1C2=C(C(=O)C3=C(C=C(C=C3O2)O)O)OC4C(C(C(C(O4)CO)O)O)O)O)O
CCS: 
COLLISIONENERGY: 20eV
INSTRUMENTTYPE: ESI-QTOF
Num Peaks: 9
151.00326 2
178.99819 2
255.02943 2
271.02451 4
300.02779 100
301.03518 72
302.03849 3
463.08823 72
464.09127 4

NAME: Isoquercitrin
PRECURSORMZ: 463.0882
PRECURSORTYPE: [M-H]-
FORMULA: C21H20O12
RETENTIONTIME: 2.843
IONMODE: Negative
COMMENT: Spectra extracted with MS2extract R package
INCHIKEY: OVSQVDMCBVZWGM-LQSBFMDOSA-N
SMILES: C1=CC(=C(C=C1C2=C(C(=O)C3=C(C=C(C=C3O2)O)O)OC4C(C(C(C(O4)CO)O)O)O)O)O
CCS: 
COLLISIONENERGY: 40eV
INSTRUMENTTYPE: ESI-QTOF
Num Peaks: 17
107.01386 2
121.02949 2
151.00376 13
163.00381 3
178.99882 5
227.03507 3
243.03021 12
245.04542 2
254.02221 3
255.03008 39
256.03423 2
271.02531 83
272.03113 6
273.04041 2
283.02471 2
300.02832 100
301.03491 17

NAME: Isoquercitroside
PRECURSORMZ: 463.09054
PRECURSORTYPE: [M-H]-
FORMULA: C21H20O12
RETENTIONTIME: 2.868
IONMODE: Negative
COMMENT: Spectra extracted with MS2extract R package
INCHIKEY: OPJZLUXFQFQYAI-GNPVFZCLSA-N
SMILES: OC1=CC(O)=C(C(C(O[C@@H]2O[C@@]([C@H](O)CO)([H])[C@H](O)[C@H]2O)=C(C3=CC=C(O)C(O)=C3)O4)=O)C4=C1
CCS: 
COLLISIONENERGY: 20eV
INSTRUMENTTYPE: ESI-QTOF
Num Peaks: 14
151.0032 3
178.99862 3
255.02964 2
271.02446 3
300.02872 100
300.06774 4
301.03596 82
301.07514 4
302.03894 15
303.03975 2
463.08956 82
463.13767 3
464.09233 23
465.0929 6

NAME: Isoquercitroside
PRECURSORMZ: 463.09054
PRECURSORTYPE: [M-H]-
FORMULA: C21H20O12
RETENTIONTIME: 2.857
IONMODE: Negative
COMMENT: Spectra extracted with MS2extract R package
INCHIKEY: OPJZLUXFQFQYAI-GNPVFZCLSA-N
SMILES: OC1=CC(O)=C(C(C(O[C@@H]2O[C@@]([C@H](O)CO)([H])[C@H](O)[C@H]2O)=C(C3=CC=C(O)C(O)=C3)O4)=O)C4=C1
CCS: 
COLLISIONENERGY: 40eV
INSTRUMENTTYPE: ESI-QTOF
Num Peaks: 25
107.01394 2
121.02978 2
135.00909 2
151.00411 14
163.00414 3
178.99928 6
226.02737 2
227.03555 4
243.03042 9
244.03549 2
245.0462 2
254.02285 3
255.03079 31
255.03954 2
256.03382 5
271.02621 61
271.0463 2
271.06361 2
272.02957 11
273.03639 2
283.02551 2
300.02941 100
300.06872 4
301.03403 25
302.03663 5

NAME: Isorhamnetin
PRECURSORMZ: 315.05051
PRECURSORTYPE: [M-H]-
FORMULA: C16H12O7
RETENTIONTIME: 4.057
IONMODE: Negative
COMMENT: Spectra extracted with MS2extract R package
INCHIKEY: IZQSVPBOUDKVDZ-UHFFFAOYSA-N
SMILES: COC1=C(C=CC(=C1)C2=C(C(=O)C3=C(C=C(C=C3O2)O)O)O)O
CCS: 
COLLISIONENERGY: 20eV
INSTRUMENTTYPE: ESI-QTOF
Num Peaks: 3
151.0035 5
300.02735 100
315.05078 48

NAME: Isorhamnetin
PRECURSORMZ: 315.05051
PRECURSORTYPE: [M-H]-
FORMULA: C16H12O7
RETENTIONTIME: 4.05
IONMODE: Negative
COMMENT: Spectra extracted with MS2extract R package
INCHIKEY: IZQSVPBOUDKVDZ-UHFFFAOYSA-N
SMILES: COC1=C(C=CC(=C1)C2=C(C(=O)C3=C(C=C(C=C3O2)O)O)O)O
CCS: 
COLLISIONENERGY: 40eV
INSTRUMENTTYPE: ESI-QTOF
Num Peaks: 57
107.01384 100
108.02152 70
109.02902 3
119.01353 2
120.02135 17
122.00043 8
124.01615 9
135.00838 14
136.0161 21
137.02322 2
145.0293 2
146.03724 2
148.01629 59
149.99561 7
151.0035 83
152.01109 7
155.05021 2
158.0364 2
159.04473 3
161.02407 2
163.00331 45
164.01116 40
171.04475 5
172.05247 5
173.02436 2
174.03168 6
175.0396 3
176.0112 2
182.03627 2
183.04478 11
185.0241 2
187.03943 7
188.04723 3
189.01912 7
192.00521 2
198.03134 2
199.03954 13
200.0477 3
201.0193 4
202.02652 4
203.03436 3
211.03955 8
215.03456 15
216.04221 8
226.02689 4
227.03461 26
228.04132 2
229.01415 4
239.03422 2
243.02938 29
244.03721 3
255.02954 38
271.02441 46
272.032 2
283.02433 23
299.01903 9
300.02716 28

NAME: Isoscopoletin
PRECURSORMZ: 191.0349
PRECURSORTYPE: [M-H]-
FORMULA: C10H8O4
RETENTIONTIME: 2.797
IONMODE: Negative
COMMENT: Spectra extracted with MS2extract R package
INCHIKEY: SYTYLPHCLSSCOJ-UHFFFAOYSA-N
SMILES: O=C1OC2=C(C=C1)C=C(O)C(OC)=C2
CCS: 
COLLISIONENERGY: 20eV
INSTRUMENTTYPE: ESI-QTOF
Num Peaks: 10
104.02712 100
104.05072 3
120.02194 26
120.0295 2
148.01706 71
148.02431 4
148.04526 3
176.01211 82
176.02008 4
176.0427 3

NAME: Isoscopoletin
PRECURSORMZ: 191.0349
PRECURSORTYPE: [M-H]-
FORMULA: C10H8O4
RETENTIONTIME: 2.789
IONMODE: Negative
COMMENT: Spectra extracted with MS2extract R package
INCHIKEY: SYTYLPHCLSSCOJ-UHFFFAOYSA-N
SMILES: O=C1OC2=C(C=C1)C=C(O)C(OC)=C2
CCS: 
COLLISIONENERGY: 40eV
INSTRUMENTTYPE: ESI-QTOF
Num Peaks: 8
92.02658 17
104.0267 100
104.03389 7
119.01412 2
120.02178 33
120.02972 3
148.01638 7
176.01102 2

NAME: Isoscopoletin
PRECURSORMZ: 191.0349
PRECURSORTYPE: [M-H]-
FORMULA: C10H8O4
RETENTIONTIME: 2.784
IONMODE: Negative
COMMENT: Spectra extracted with MS2extract R package
INCHIKEY: SYTYLPHCLSSCOJ-UHFFFAOYSA-N
SMILES: O=C1OC2=C(C=C1)C=C(O)C(OC)=C2
CCS: 
COLLISIONENERGY: 60eV
INSTRUMENTTYPE: ESI-QTOF
Num Peaks: 158
50.01593 98
50.02077 4
50.02643 3
50.03154 3
50.18351 2
50.28706 2
51.02335 33
51.02807 3
53.00274 10
62.01661 2
63.02372 55
63.03057 3
63.99413 2
64.03085 4
65.00316 100
65.00874 10
65.01749 2
65.02223 2
65.99803 2
66.01112 13
66.37792 3
66.4169 2
68.99781 44
69.00443 8
69.07138 2
69.59035 3
72.43921 2
73.00835 13
78.01037 12
78.01796 3
79.01926 2
82.54562 6
84.19868 2
84.35841 2
87.48575 3
87.52806 3
91.0188 36
91.02789 2
92.02669 23
92.03313 2
92.51604 3
92.99734 8
93.00488 2
95.55499 2
97.56263 3
103.01981 7
103.02852 2
104.02674 36
104.03386 3
119.0147 42
119.02241 7
119.0344 2
120.0209 15
123.80719 2
126.70468 2
143.39434 2
157.75793 2
160.44926 4
175.53793 4
175.54636 2
177.37714 2
178.45956 2
181.0805 2
197.68054 3
199.78456 2
214.53427 2
222.90669 11
245.24188 2
248.53809 2
254.13555 2
262.83021 2
279.47589 3
293.54644 2
298.52416 3
323.44299 2
334.07181 3
334.51727 2
356.8631 6
363.22175 2
364.99517 2
368.36583 6
373.06041 4
383.19288 2
388.91796 2
394.20476 2
395.61862 2
410.29843 4
412.43491 2
430.23759 3
441.74874 3
448.59718 2
460.64105 2
477.75405 2
481.80292 3
484.34237 2
489.7567 2
497.62498 3
497.64533 2
499.32854 4
500.98023 2
504.77731 3
505.75084 3
523.43358 2
540.21193 3
558.99078 3
559.0775 2
563.62411 2
565.23238 4
566.93623 2
569.53007 2
569.54096 2
580.80718 2
581.22128 4
606.5153 4
606.53254 2
619.56963 4
620.25969 4
620.52245 6
620.54197 2
622.17334 2
639.73031 3
643.14462 2
651.87648 10
651.89851 4
651.92025 2
656.2424 4
665.71804 2
684.96562 2
689.62781 8
689.64618 2
696.2024 4
700.4496 4
729.02762 2
732.37282 2
740.93924 3
744.61117 6
777.23018 9
784.25681 12
820.67998 2
836.41464 2
850.09729 2
851.13993 3
854.86936 2
861.64177 4
873.38696 5
891.56876 2
891.98165 21
892.00269 7
921.93129 3
921.95256 2
937.7389 2
948.28876 3
979.31517 4
979.99743 3
985.60449 2
987.28666 2
993.91615 2
997.81507 8

NAME: Isoscopoletin
PRECURSORMZ: 191.0349
PRECURSORTYPE: [M-H]-
FORMULA: C10H8O4
RETENTIONTIME: 2.788
IONMODE: Negative
COMMENT: Spectra extracted with MS2extract R package
INCHIKEY: SYTYLPHCLSSCOJ-UHFFFAOYSA-N
SMILES: O=C1OC2=C(C=C1)C=C(O)C(OC)=C2
CCS: 
COLLISIONENERGY: 80eV
INSTRUMENTTYPE: ESI-QTOF
Num Peaks: 106
50.01575 41
50.02111 4
50.75948 5
50.99799 3
51.02367 41
51.02966 2
51.04131 2
53.00311 11
61.00832 5
62.01716 9
63.02338 24
63.02888 4
63.15281 2
63.57177 2
63.89404 3
63.9953 7
64.03213 11
64.03648 3
65.00302 100
65.00799 5
65.01195 2
65.02135 2
66.01184 22
66.01646 5
68.99798 44
69.00435 4
69.01188 2
69.41142 2
73.00795 34
74.81895 2
75.02402 13
75.02981 4
75.29792 2
77.00365 10
79.01858 3
90.24288 2
91.01822 18
103.93173 2
122.40198 2
126.00163 2
134.76469 2
144.71732 2
155.19935 2
161.86585 2
178.23536 2
185.69919 2
185.9503 3
192.22075 2
220.99445 2
222.31127 2
225.53782 2
229.61819 2
234.80085 2
252.94036 2
259.64686 2
263.93184 4
300.4271 2
305.84703 2
310.17977 2
317.248 2
329.26143 3
335.51092 2
356.78769 3
363.52391 7
392.4217 2
409.02271 2
449.31848 4
450.16347 2
461.3993 2
478.89295 2
482.64751 2
496.60272 3
496.6198 2
506.23666 2
515.72826 6
515.74333 3
534.74851 2
540.66735 2
549.32784 2
575.17028 2
626.90218 3
628.11832 2
656.6568 3
678.77235 2
681.3467 3
689.22621 2
724.45895 3
756.21717 3
756.6859 5
770.65597 2
797.23595 4
804.13323 3
812.25236 3
813.09626 2
834.16791 3
839.57066 2
883.69748 2
893.61494 3
902.696 2
914.6249 3
914.6415 2
926.00835 2
927.79285 3
962.30873 3
983.86419 2
999.49095 4

NAME: Kaempferide
PRECURSORMZ: 299.05551
PRECURSORTYPE: [M-H]-
FORMULA: C16H12O6
RETENTIONTIME: 4.809
IONMODE: Negative
COMMENT: Spectra extracted with MS2extract R package
INCHIKEY: SQFSKOYWJBQGKQ-UHFFFAOYSA-N
SMILES: COC1=CC=C(C=C1)C2=C(C(=O)C3=C(C=C(C=C3O2)O)O)O
CCS: 
COLLISIONENERGY: 20eV
INSTRUMENTTYPE: ESI-QTOF
Num Peaks: 3
151.00345 6
284.03251 100
299.05668 31

NAME: Kaempferide
PRECURSORMZ: 299.05551
PRECURSORTYPE: [M-H]-
FORMULA: C16H12O6
RETENTIONTIME: 4.805
IONMODE: Negative
COMMENT: Spectra extracted with MS2extract R package
INCHIKEY: SQFSKOYWJBQGKQ-UHFFFAOYSA-N
SMILES: COC1=CC=C(C=C1)C2=C(C(=O)C3=C(C=C(C=C3O2)O)O)O
CCS: 
COLLISIONENERGY: 40eV
INSTRUMENTTYPE: ESI-QTOF
Num Peaks: 31
104.02653 8
107.01384 100
108.02155 28
119.01338 2
120.02166 18
122.00069 9
130.04221 2
132.02147 50
135.00844 7
136.01636 12
149.99569 4
151.0035 84
156.05775 4
163.00347 48
164.01138 40
167.04989 3
171.04446 2
183.04482 8
184.0518 2
199.0396 9
200.04771 6
211.04013 9
212.04707 2
227.03482 22
228.04279 2
239.03384 4
240.0426 2
255.02951 28
256.03686 2
283.02477 10
284.03243 26

NAME: Kaempferol
PRECURSORMZ: 285.0405
PRECURSORTYPE: [M-H]-
FORMULA: C15H10O6
RETENTIONTIME: 3.975
IONMODE: Negative
COMMENT: Spectra extracted with MS2extract R package
INCHIKEY: IYRMWMYZSQPJKC-UHFFFAOYSA-N
SMILES: C1=CC(=CC=C1C2=C(C(=O)C3=C(C=C(C=C3O2)O)O)O)O
CCS: 
COLLISIONENERGY: 20eV
INSTRUMENTTYPE: ESI-QTOF
Num Peaks: 5
151.00382 3
185.06073 2
229.05074 2
257.04541 2
285.04291 100

NAME: Kaempferol
PRECURSORMZ: 285.0405
PRECURSORTYPE: [M-H]-
FORMULA: C15H10O6
RETENTIONTIME: 3.97
IONMODE: Negative
COMMENT: Spectra extracted with MS2extract R package
INCHIKEY: IYRMWMYZSQPJKC-UHFFFAOYSA-N
SMILES: C1=CC(=CC=C1C2=C(C(=O)C3=C(C=C(C=C3O2)O)O)O)O
CCS: 
COLLISIONENERGY: 40eV
INSTRUMENTTYPE: ESI-QTOF
Num Peaks: 104
103.05514 2
105.03455 26
107.01379 35
108.02174 60
109.02951 28
115.05521 7
116.02649 2
117.0345 100
119.01373 10
119.05 14
120.02165 12
121.02952 12
123.00861 5
124.01606 2
127.0549 2
128.06345 2
129.03425 10
129.07047 3
130.04225 17
131.05017 25
132.02139 10
133.02947 19
133.06508 4
135.0087 19
135.0447 8
136.01636 12
137.02434 14
139.05487 3
141.03442 8
141.07056 5
142.04221 6
143.0503 60
145.02954 51
145.06449 8
146.03677 3
147.04488 4
151.00343 10
151.04014 5
154.04238 19
155.05028 27
156.02155 3
156.05781 20
157.0295 20
157.06574 23
158.03722 25
159.04531 61
161.02444 35
161.05964 6
163.00344 14
163.0383 2
164.01127 10
165.02013 2
167.05005 23
168.0581 7
169.02916 5
169.06559 8
170.03689 5
171.04509 30
172.05222 2
173.0241 13
173.06 4
174.03192 5
175.03973 3
182.03701 14
183.04521 36
184.05282 21
185.02448 5
185.06074 30
186.03219 5
187.04013 42
189.05518 2
190.99834 6
192.00668 2
195.04491 11
196.05303 3
197.02425 3
197.05956 2
198.0317 5
199.03977 5
200.04739 3
201.0554 9
210.03207 10
211.04007 44
212.04753 4
213.01937 6
213.05533 6
214.02691 11
215.0347 6
219.02977 3
223.03992 3
227.03512 44
228.04206 2
229.0506 11
238.02689 2
239.03501 33
240.04282 7
243.02956 4
255.02987 28
256.03748 2
257.04505 2
267.02941 11
268.03743 8
284.03222 2
285.04031 29

NAME: Malic acid
PRECURSORMZ: 133.01372
PRECURSORTYPE: [M-H]-
FORMULA: C4H6O5
RETENTIONTIME: 0.378
IONMODE: Negative
COMMENT: Spectra extracted with MS2extract R package
INCHIKEY: BJEPYKJPYRNKOW-UHFFFAOYSA-N
SMILES: C(C(C(=O)O)O)C(=O)O
CCS: 
COLLISIONENERGY: 20eV
INSTRUMENTTYPE: ESI-QTOF
Num Peaks: 2
115.00377 100
133.01425 5

NAME: Melezitose
PRECURSORMZ: 503.1618
PRECURSORTYPE: [M-H]-
FORMULA: C18H32O16
RETENTIONTIME: 0.333
IONMODE: Negative
COMMENT: Spectra extracted with MS2extract R package
INCHIKEY: QWIZNVHXZXRPDR-WSCXOGSTSA-N
SMILES: C(C1C(C(C(C(O1)OC2C(C(OC2(CO)OC3C(C(C(C(O3)CO)O)O)O)CO)O)O)O)O)O
CCS: 
COLLISIONENERGY: 20eV
INSTRUMENTTYPE: ESI-QTOF
Num Peaks: 16
101.02449 34
107.03453 2
113.02443 32
119.03509 30
125.02408 2
131.0351 15
143.03508 18
149.04569 3
161.0455 17
179.05614 31
233.06601 2
323.0987 100
324.10116 4
341.10889 9
503.16161 71
504.16556 4

NAME: Melezitose
PRECURSORMZ: 503.1618
PRECURSORTYPE: [M-H]-
FORMULA: C18H32O16
RETENTIONTIME: 0.335
IONMODE: Negative
COMMENT: Spectra extracted with MS2extract R package
INCHIKEY: QWIZNVHXZXRPDR-WSCXOGSTSA-N
SMILES: C(C1C(C(C(C(O1)OC2C(C(OC2(CO)OC3C(C(C(C(O3)CO)O)O)O)CO)O)O)O)O)O
CCS: 
COLLISIONENERGY: 40eV
INSTRUMENTTYPE: ESI-QTOF
Num Peaks: 9
101.02442 100
113.02424 64
119.03465 16
125.02392 3
131.03473 17
143.03492 7
161.04525 3
173.04611 2
323.09774 2

NAME: Narcissin
PRECURSORMZ: 623.16119
PRECURSORTYPE: [M-H]-
FORMULA: C28H32O16
RETENTIONTIME: 3.007
IONMODE: Negative
COMMENT: Spectra extracted with MS2extract R package
INCHIKEY: UIDGLYUNOUKLBM-GEBJFKNCSA-N
SMILES: CC1C(C(C(C(O1)OCC2C(C(C(C(O2)OC3=C(OC4=CC(=CC(=C4C3=O)O)O)C5=CC(=C(C=C5)O)OC)O)O)O)O)O)O
CCS: 
COLLISIONENERGY: 20eV
INSTRUMENTTYPE: ESI-QTOF
Num Peaks: 5
314.04318 6
315.05098 38
316.05434 2
623.16408 100
624.16613 12

NAME: Narcissin
PRECURSORMZ: 623.16119
PRECURSORTYPE: [M-H]-
FORMULA: C28H32O16
RETENTIONTIME: 2.967
IONMODE: Negative
COMMENT: Spectra extracted with MS2extract R package
INCHIKEY: UIDGLYUNOUKLBM-GEBJFKNCSA-N
SMILES: CC1C(C(C(C(O1)OCC2C(C(C(C(O2)OC3=C(OC4=CC(=CC(=C4C3=O)O)O)C5=CC(=C(C=C5)O)OC)O)O)O)O)O)O
CCS: 
COLLISIONENERGY: 40eV
INSTRUMENTTYPE: ESI-QTOF
Num Peaks: 14
151.0036 2
243.02996 4
255.02987 2
271.0254 8
272.03175 2
285.04068 3
286.04809 2
287.05594 2
299.01993 26
300.02748 25
314.04372 66
315.05194 100
316.05489 5
623.16147 3

NAME: Naringenin
PRECURSORMZ: 271.06131
PRECURSORTYPE: [M-H]-
FORMULA: C15H12O5
RETENTIONTIME: 3.046
IONMODE: Negative
COMMENT: Spectra extracted with MS2extract R package
INCHIKEY: FTVWIRXFELQLPI-UHFFFAOYSA-N
SMILES: C1C(OC2=CC(=CC(=C2C1=O)O)O)C3=CC=C(C=C3)O
CCS: 
COLLISIONENERGY: 20eV
INSTRUMENTTYPE: ESI-QTOF
Num Peaks: 8
107.01391 32
119.05014 76
151.00362 100
165.01881 5
177.01884 12
187.04015 2
227.07154 2
271.06025 23

NAME: Naringenin
PRECURSORMZ: 271.06131
PRECURSORTYPE: [M-H]-
FORMULA: C15H12O5
RETENTIONTIME: 3.055
IONMODE: Negative
COMMENT: Spectra extracted with MS2extract R package
INCHIKEY: FTVWIRXFELQLPI-UHFFFAOYSA-N
SMILES: C1C(OC2=CC(=CC(=C2C1=O)O)O)C3=CC=C(C=C3)O
CCS: 
COLLISIONENERGY: 40eV
INSTRUMENTTYPE: ESI-QTOF
Num Peaks: 7
107.01407 13
117.03493 4
119.05039 100
143.05012 2
145.02986 2
151.00341 4
187.04019 3

NAME: Naringin
PRECURSORMZ: 579.17139
PRECURSORTYPE: [M-H]-
FORMULA: C27H32O14
RETENTIONTIME: 3.007
IONMODE: Negative
COMMENT: Spectra extracted with MS2extract R package
INCHIKEY: DFPMSGMNTNDNHN-ZPHOTFPESA-N
SMILES: CC1C(C(C(C(O1)OC2C(C(C(OC2OC3=CC(=C4C(=O)CC(OC4=C3)C5=CC=C(C=C5)O)O)CO)O)O)O)O)O
CCS: 
COLLISIONENERGY: 20eV
INSTRUMENTTYPE: ESI-QTOF
Num Peaks: 6
151.00337 7
271.06082 19
313.07162 2
459.11549 17
579.17349 100
580.17529 14

NAME: Naringin
PRECURSORMZ: 579.17139
PRECURSORTYPE: [M-H]-
FORMULA: C27H32O14
RETENTIONTIME: 3.007
IONMODE: Negative
COMMENT: Spectra extracted with MS2extract R package
INCHIKEY: DFPMSGMNTNDNHN-ZPHOTFPESA-N
SMILES: CC1C(C(C(C(O1)OC2C(C(C(OC2OC3=CC(=C4C(=O)CC(OC4=C3)C5=CC=C(C=C5)O)O)CO)O)O)O)O)O
CCS: 
COLLISIONENERGY: 40eV
INSTRUMENTTYPE: ESI-QTOF
Num Peaks: 19
107.01381 5
119.04995 16
125.0243 4
145.02915 4
151.0037 98
152.00676 3
164.01111 2
165.01902 2
175.00315 2
177.01904 5
193.01394 3
227.07111 2
235.02443 3
271.06149 100
272.06465 6
313.07193 3
339.0718 3
459.11684 5
579.17156 2

NAME: Neochlorogenic acid
PRECURSORMZ: 353.0878
PRECURSORTYPE: [M-H]-
FORMULA: C16H18O9
RETENTIONTIME: 1.983
IONMODE: Negative
COMMENT: Spectra extracted with MS2extract R package
INCHIKEY: CWVRJTMFETXNAD-NXLLHMKUSA-N
SMILES: OC1=CC=C(/C=C/C(O[C@@H]2C[C@](C(O)=O)(O)C[C@@H](O)[C@@H]2O)=O)C=C1O
CCS: 
COLLISIONENERGY: 20eV
INSTRUMENTTYPE: ESI-QTOF
Num Peaks: 8
135.04527 31
155.0349 2
161.02422 3
173.04535 3
179.03572 70
179.06606 3
191.05714 100
191.08793 4

NAME: Neochlorogenic acid
PRECURSORMZ: 353.0878
PRECURSORTYPE: [M-H]-
FORMULA: C16H18O9
RETENTIONTIME: 1.972
IONMODE: Negative
COMMENT: Spectra extracted with MS2extract R package
INCHIKEY: CWVRJTMFETXNAD-NXLLHMKUSA-N
SMILES: OC1=CC=C(/C=C/C(O[C@@H]2C[C@](C(O)=O)(O)C[C@@H](O)[C@@H]2O)=O)C=C1O
CCS: 
COLLISIONENERGY: 40eV
INSTRUMENTTYPE: ESI-QTOF
Num Peaks: 21
59.01339 6
71.01343 2
79.05504 3
83.0498 3
85.0292 20
87.00844 4
93.03432 9
107.04992 5
109.02921 2
111.0448 5
117.0344 2
127.03983 5
133.02926 3
134.0372 19
135.04541 100
135.07227 3
161.02419 3
173.04546 2
179.03484 5
191.0562 38
191.06405 2

NAME: Neochlorogenic acid
PRECURSORMZ: 353.08771
PRECURSORTYPE: [M-H]-
FORMULA: C16H18O9
RETENTIONTIME: 1.989
IONMODE: Negative
COMMENT: Spectra extracted with MS2extract R package
INCHIKEY: CWVRJTMFETXNAD-NXLLHMKUSA-N
SMILES: OC1=CC=C(/C=C/C(O[C@@H]2C[C@](C(O)=O)(O)C[C@@H](O)[C@@H]2O)=O)C=C1O
CCS: 
COLLISIONENERGY: 60eV
INSTRUMENTTYPE: ESI-QTOF
Num Peaks: 41
51.02317 2
53.03936 2
55.01832 4
57.03405 8
59.01343 23
59.01917 2
65.00299 2
65.03899 3
67.01831 5
69.03426 7
71.0133 5
73.02897 3
77.03932 2
79.05492 13
81.03415 10
83.04999 7
85.02918 72
85.03558 5
87.00834 12
89.03928 22
89.04588 2
91.0548 4
93.03428 41
93.0412 3
97.02931 3
99.0446 3
105.03456 2
106.04196 6
107.04983 12
108.02096 8
109.02919 9
111.04484 3
117.03424 9
127.03962 5
132.02133 6
133.02939 10
134.03722 100
134.04526 8
135.04495 87
135.0532 6
191.05588 7

NAME: Neochlorogenic acid
PRECURSORMZ: 353.08771
PRECURSORTYPE: [M-H]-
FORMULA: C16H18O9
RETENTIONTIME: 1.975
IONMODE: Negative
COMMENT: Spectra extracted with MS2extract R package
INCHIKEY: CWVRJTMFETXNAD-NXLLHMKUSA-N
SMILES: OC1=CC=C(/C=C/C(O[C@@H]2C[C@](C(O)=O)(O)C[C@@H](O)[C@@H]2O)=O)C=C1O
CCS: 
COLLISIONENERGY: 80eV
INSTRUMENTTYPE: ESI-QTOF
Num Peaks: 56
51.02363 7
53.03886 9
55.01847 26
56.99783 2
57.03403 27
57.03968 2
58.00524 3
59.01338 43
59.01907 4
63.02337 4
65.00297 10
65.00882 2
65.03916 16
67.01836 17
69.03417 11
70.00529 2
71.01338 10
71.04975 2
73.02906 5
75.02375 2
77.03935 6
79.01842 2
79.05505 13
81.03421 17
83.01309 2
83.04941 5
84.02136 2
85.02903 84
85.0355 6
87.00828 15
87.02311 2
88.03107 4
89.00335 3
89.0393 97
89.04569 5
91.01871 5
91.05466 3
93.03412 100
93.04075 7
97.02867 3
104.02644 7
106.04184 12
107.04986 9
108.0213 24
108.02826 2
109.02904 13
115.01827 2
117.03439 10
127.04014 2
132.0212 23
132.03017 3
133.02895 15
134.03698 91
134.04495 7
135.04487 33
135.05349 3

NAME: Neoeriocitrin
PRECURSORMZ: 595.16632
PRECURSORTYPE: [M-H]-
FORMULA: C27H32O15
RETENTIONTIME: 2.799
IONMODE: Negative
COMMENT: Spectra extracted with MS2extract R package
INCHIKEY: OBKKEZLIABHSGY-DOYQYKRZSA-N
SMILES: CC1C(C(C(C(O1)OC2C(C(C(OC2OC3=CC(=C4C(=O)CC(OC4=C3)C5=CC(=C(C=C5)O)O)O)CO)O)O)O)O)O
CCS: 
COLLISIONENERGY: 20eV
INSTRUMENTTYPE: ESI-QTOF
Num Peaks: 8
135.04532 3
151.00354 9
235.02471 2
287.05613 3
459.11455 29
460.11807 2
595.16943 100
596.17059 14

NAME: Neoeriocitrin
PRECURSORMZ: 595.16632
PRECURSORTYPE: [M-H]-
FORMULA: C27H32O15
RETENTIONTIME: 2.8
IONMODE: Negative
COMMENT: Spectra extracted with MS2extract R package
INCHIKEY: OBKKEZLIABHSGY-DOYQYKRZSA-N
SMILES: CC1C(C(C(C(O1)OC2C(C(C(OC2OC3=CC(=C4C(=O)CC(OC4=C3)C5=CC(=C(C=C5)O)O)O)CO)O)O)O)O)O
CCS: 
COLLISIONENERGY: 40eV
INSTRUMENTTYPE: ESI-QTOF
Num Peaks: 15
107.01359 4
109.0291 2
125.02401 3
135.04482 46
151.00385 100
152.00677 3
161.0241 3
175.00322 3
193.0139 4
205.0138 2
235.02454 7
287.0562 6
339.07211 4
459.11438 16
595.16644 2

NAME: Nictoflorin
PRECURSORMZ: 593.15057
PRECURSORTYPE: [M-H]-
FORMULA: C27H30O15
RETENTIONTIME: 2.972
IONMODE: Negative
COMMENT: Spectra extracted with MS2extract R package
INCHIKEY: RTATXGUCZHCSNG-QHWHWDPRSA-N
SMILES: CC1C(C(C(C(O1)OCC2C(C(C(C(O2)OC3=C(OC4=CC(=CC(=C4C3=O)O)O)C5=CC=C(C=C5)O)O)O)O)O)O)O
CCS: 
COLLISIONENERGY: 20eV
INSTRUMENTTYPE: ESI-QTOF
Num Peaks: 5
284.03289 7
285.0403 27
286.04364 2
593.15244 100
594.15542 12

NAME: Nictoflorin
PRECURSORMZ: 593.15057
PRECURSORTYPE: [M-H]-
FORMULA: C27H30O15
RETENTIONTIME: 2.931
IONMODE: Negative
COMMENT: Spectra extracted with MS2extract R package
INCHIKEY: RTATXGUCZHCSNG-QHWHWDPRSA-N
SMILES: CC1C(C(C(C(O1)OCC2C(C(C(C(O2)OC3=C(OC4=CC(=CC(=C4C3=O)O)O)C5=CC=C(C=C5)O)O)O)O)O)O)O
CCS: 
COLLISIONENERGY: 40eV
INSTRUMENTTYPE: ESI-QTOF
Num Peaks: 10
151.00366 2
227.03526 6
229.05086 4
255.03009 15
256.03688 3
257.04564 4
284.03329 90
285.04109 100
286.04429 6
593.15107 3

NAME: p-Coumaric acid
PRECURSORMZ: 163.0401
PRECURSORTYPE: [M-H]-
FORMULA: C9H8O3
RETENTIONTIME: 2.71
IONMODE: Negative
COMMENT: Spectra extracted with MS2extract R package
INCHIKEY: NGSWKAQJJWESNS-ZZXKWVIFSA-N
SMILES: C1=CC(=CC=C1C=CC(=O)O)O
CCS: 
COLLISIONENERGY: 20eV
INSTRUMENTTYPE: ESI-QTOF
Num Peaks: 1
119.05236 100

NAME: p-Coumaric acid
PRECURSORMZ: 163.0401
PRECURSORTYPE: [M-H]-
FORMULA: C9H8O3
RETENTIONTIME: 2.678
IONMODE: Negative
COMMENT: Spectra extracted with MS2extract R package
INCHIKEY: NGSWKAQJJWESNS-ZZXKWVIFSA-N
SMILES: C1=CC(=CC=C1C=CC(=O)O)O
CCS: 
COLLISIONENERGY: 40eV
INSTRUMENTTYPE: ESI-QTOF
Num Peaks: 3
104.02652 5
117.03442 46
119.04997 100

NAME: Phloretin
PRECURSORMZ: 273.07629
PRECURSORTYPE: [M-H]-
FORMULA: C15H14O5
RETENTIONTIME: 3.887
IONMODE: Negative
COMMENT: Spectra extracted with MS2extract R package
INCHIKEY: VGEREEWJJVICBM-UHFFFAOYSA-N
SMILES: C1=CC(=CC=C1CCC(=O)C2=C(C=C(C=C2O)O)O)O
CCS: 
COLLISIONENERGY: 20eV
INSTRUMENTTYPE: ESI-QTOF
Num Peaks: 10
119.04889 35
123.04406 55
125.02288 18
151.00255 4
167.03502 100
179.03378 4
187.07491 2
189.05407 5
229.0857 3
273.0753 16

NAME: Phloretin
PRECURSORMZ: 273.07629
PRECURSORTYPE: [M-H]-
FORMULA: C15H14O5
RETENTIONTIME: 3.84
IONMODE: Negative
COMMENT: Spectra extracted with MS2extract R package
INCHIKEY: VGEREEWJJVICBM-UHFFFAOYSA-N
SMILES: C1=CC(=CC=C1CCC(=O)C2=C(C=C(C=C2O)O)O)O
CCS: 
COLLISIONENERGY: 40eV
INSTRUMENTTYPE: ESI-QTOF
Num Peaks: 13
107.01366 16
119.05037 100
123.04513 41
124.01648 2
125.0247 10
143.05014 2
145.06573 2
147.04525 5
151.00343 16
161.06063 2
167.03602 4
171.04503 2
189.05603 9

NAME: Phloridzin
PRECURSORMZ: 435.12909
PRECURSORTYPE: [M-H]-
FORMULA: C21H24O10
RETENTIONTIME: 3.178
IONMODE: Negative
COMMENT: Spectra extracted with MS2extract R package
INCHIKEY: IOUVKUPGCMBWBT-QNDFHXLGSA-N
SMILES: C1=CC(=CC=C1CCC(=O)C2=C(C=C(C=C2OC3C(C(C(C(O3)CO)O)O)O)O)O)O
CCS: 
COLLISIONENERGY: 20eV
INSTRUMENTTYPE: ESI-QTOF
Num Peaks: 6
123.04543 2
125.02493 5
167.03525 29
179.03536 3
273.07754 100
274.08075 3

NAME: Phloridzin
PRECURSORMZ: 435.12909
PRECURSORTYPE: [M-H]-
FORMULA: C21H24O10
RETENTIONTIME: 3.178
IONMODE: Negative
COMMENT: Spectra extracted with MS2extract R package
INCHIKEY: IOUVKUPGCMBWBT-QNDFHXLGSA-N
SMILES: C1=CC(=CC=C1CCC(=O)C2=C(C=C(C=C2OC3C(C(C(C(O3)CO)O)O)O)O)O)O
CCS: 
COLLISIONENERGY: 40eV
INSTRUMENTTYPE: ESI-QTOF
Num Peaks: 11
119.05084 11
123.0457 41
125.0249 21
135.04572 2
149.02485 2
151.00424 3
167.03571 100
168.03895 2
179.0357 11
189.05648 3
273.07785 7

NAME: Procyanidin A2
PRECURSORMZ: 575.11957
PRECURSORTYPE: [M-H]-
FORMULA: C30H24O12
RETENTIONTIME: 2.844
IONMODE: Negative
COMMENT: Spectra extracted with MS2extract R package
INCHIKEY: NSEWTSAADLNHNH-LSBOWGMISA-N
SMILES: C1C(C(OC2=C1C(=CC3=C2C4C(C(O3)(OC5=CC(=CC(=C45)O)O)C6=CC(=C(C=C6)O)O)O)O)C7=CC(=C(C=C7)O)O)O
CCS: 
COLLISIONENERGY: 20eV
INSTRUMENTTYPE: ESI-QTOF
Num Peaks: 38
125.02431 10
137.02441 3
161.02449 2
163.00355 3
165.01881 2
217.04996 2
241.05002 2
245.04547 2
245.0817 2
257.0451 2
285.04063 62
286.04387 4
287.05579 7
289.0718 48
290.07495 3
297.03993 4
307.06114 2
313.03573 2
327.05044 7
407.07693 16
408.08161 2
411.07227 9
423.07231 53
424.07537 5
435.07138 3
447.07296 5
449.08799 51
450.09044 6
452.07453 15
453.08155 7
471.1086 2
513.11796 2
531.13006 2
539.09834 22
540.10156 3
557.10809 5
575.11968 100
576.12208 13

NAME: Procyanidin A2
PRECURSORMZ: 575.11957
PRECURSORTYPE: [M-H]-
FORMULA: C30H24O12
RETENTIONTIME: 2.844
IONMODE: Negative
COMMENT: Spectra extracted with MS2extract R package
INCHIKEY: NSEWTSAADLNHNH-LSBOWGMISA-N
SMILES: C1C(C(OC2=C1C(=CC3=C2C4C(C(O3)(OC5=CC(=CC(=C45)O)O)C6=CC(=C(C=C6)O)O)O)O)C7=CC(=C(C=C7)O)O)O
CCS: 
COLLISIONENERGY: 40eV
INSTRUMENTTYPE: ESI-QTOF
Num Peaks: 109
109.02947 12
121.0292 8
122.03688 2
123.04507 6
125.02453 71
126.02784 2
137.02436 22
147.00856 5
149.02427 9
151.0397 8
159.04503 2
161.02431 19
161.05933 3
162.03163 3
163.00353 28
163.03827 4
164.01105 9
165.01932 17
167.03667 2
175.03994 12
176.01097 5
177.01905 10
179.03502 6
187.03958 4
188.04739 2
189.01898 2
189.05567 2
197.06085 2
199.03985 7
201.01912 3
201.05438 2
203.03449 3
203.07084 8
204.00533 2
205.01359 3
205.04989 8
213.0557 4
215.03451 5
217.01414 2
217.05026 14
219.06611 2
221.0822 2
225.05529 2
227.03498 3
227.06957 2
229.05052 3
231.02938 2
241.05017 12
242.02149 2
243.02973 9
243.06403 4
245.0448 3
245.0816 19
247.06067 2
253.05072 2
255.0296 8
255.06396 3
256.03757 4
257.04517 12
258.05132 2
259.06166 2
267.02961 2
269.04471 5
271.06011 2
272.03295 2
273.03982 2
281.04508 4
283.02378 4
283.06 6
284.03173 4
285.04065 100
286.04418 8
287.05341 6
289.07151 31
290.07493 2
297.04017 9
298.04718 2
299.05611 2
300.02767 2
301.0349 3
307.06083 15
309.04038 5
313.03453 2
319.06076 4
320.06843 2
321.07505 2
325.03387 2
326.04161 2
327.05047 6
347.05509 2
361.0709 2
363.08679 2
375.05023 3
387.05076 7
388.05809 7
389.06593 3
407.07706 17
408.08119 2
411.07217 8
415.04558 3
423.07176 16
424.07527 2
434.06348 2
447.07443 2
449.08742 5
452.07454 2
471.10781 8
539.09765 16
540.10175 2

NAME: Procyanidin B1
PRECURSORMZ: 577.13519
PRECURSORTYPE: [M-H]-
FORMULA: C30H26O12
RETENTIONTIME: 2.088
IONMODE: Negative
COMMENT: Spectra extracted with MS2extract R package
INCHIKEY: XFZJEEAOWLFHDH-UKWJTHFESA-N
SMILES: C1C(C(OC2=C1C(=CC(=C2C3C(C(OC4=CC(=CC(=C34)O)O)C5=CC(=C(C=C5)O)O)O)O)O)C6=CC(=C(C=C6)O)O)O
CCS: 
COLLISIONENERGY: 20eV
INSTRUMENTTYPE: ESI-QTOF
Num Peaks: 23
125.02453 50
137.02461 4
161.02474 11
205.05046 2
245.04569 5
245.08161 6
273.04043 5
287.05648 12
289.07207 100
290.07531 5
299.05635 8
329.06638 2
339.08727 3
381.09789 4
407.07765 89
408.08076 7
425.08806 39
426.09158 3
451.1041 22
452.10686 2
559.12404 2
577.13584 20
578.13885 2

NAME: Procyanidin B1
PRECURSORMZ: 577.13519
PRECURSORTYPE: [M-H]-
FORMULA: C30H26O12
RETENTIONTIME: 2.089
IONMODE: Negative
COMMENT: Spectra extracted with MS2extract R package
INCHIKEY: XFZJEEAOWLFHDH-UKWJTHFESA-N
SMILES: C1C(C(OC2=C1C(=CC(=C2C3C(C(OC4=CC(=CC(=C34)O)O)C5=CC(=C(C=C5)O)O)O)O)O)C6=CC(=C(C=C6)O)O)O
CCS: 
COLLISIONENERGY: 40eV
INSTRUMENTTYPE: ESI-QTOF
Num Peaks: 57
109.0297 12
121.02957 3
123.04535 8
125.02449 100
126.02778 2
135.04508 2
137.02479 17
139.04011 2
149.02437 4
151.04028 13
159.04485 2
161.0245 27
161.05919 6
162.03143 3
163.00365 2
163.0399 3
164.01148 4
165.01943 7
167.03495 2
175.04011 9
177.01929 5
179.03519 8
187.04014 7
188.04764 3
201.05557 2
202.06346 2
203.0345 2
203.07165 13
205.01414 5
205.05085 12
215.03496 2
217.05052 2
221.08193 3
227.07114 3
229.05057 4
231.02975 2
243.02994 3
245.04566 5
245.08207 30
246.08509 2
247.0611 2
255.02988 6
256.03766 6
257.04526 2
269.04545 2
271.0606 2
273.04044 3
281.04565 5
283.02551 3
285.04106 5
289.07218 39
290.07537 2
297.04049 2
297.07519 2
339.0874 8
407.07763 36
408.08067 3

NAME: Procyanidin B2
PRECURSORMZ: 577.13519
PRECURSORTYPE: [M-H]-
FORMULA: C30H26O12
RETENTIONTIME: 2.337
IONMODE: Negative
COMMENT: Spectra extracted with MS2extract R package
INCHIKEY: XFZJEEAOWLFHDH-NFJBMHMQSA-N
SMILES: C1C(C(OC2=C1C(=CC(=C2C3C(C(OC4=CC(=CC(=C34)O)O)C5=CC(=C(C=C5)O)O)O)O)O)C6=CC(=C(C=C6)O)O)O
CCS: 
COLLISIONENERGY: 20eV
INSTRUMENTTYPE: ESI-QTOF
Num Peaks: 24
125.02458 53
137.02426 4
161.02461 13
175.03956 2
205.05071 2
245.04528 5
245.08119 6
273.04039 6
287.0563 12
289.07178 100
290.07509 5
299.05578 8
329.06651 2
339.08716 3
381.09796 5
407.0774 100
408.08079 8
425.08812 47
426.09153 4
451.10385 22
452.10668 2
559.12481 2
577.13558 19
578.13802 2

NAME: Procyanidin B2
PRECURSORMZ: 577.13519
PRECURSORTYPE: [M-H]-
FORMULA: C30H26O12
RETENTIONTIME: 2.253
IONMODE: Negative
COMMENT: Spectra extracted with MS2extract R package
INCHIKEY: XFZJEEAOWLFHDH-NFJBMHMQSA-N
SMILES: C1C(C(OC2=C1C(=CC(=C2C3C(C(OC4=CC(=CC(=C34)O)O)C5=CC(=C(C=C5)O)O)O)O)O)C6=CC(=C(C=C6)O)O)O
CCS: 
COLLISIONENERGY: 40eV
INSTRUMENTTYPE: ESI-QTOF
Num Peaks: 57
109.02963 13
121.02952 3
122.037 2
123.04507 8
125.02437 100
126.02758 2
135.04509 2
137.02445 19
139.04011 2
149.02422 4
151.04011 13
159.04498 2
161.0246 25
161.0588 5
162.03124 3
163.00357 2
163.03965 3
164.0116 4
165.01922 7
167.03491 2
175.03999 10
177.01916 5
179.0351 8
187.03999 7
188.04778 3
201.05572 2
202.06301 2
203.03519 2
203.07132 13
205.01412 4
205.05059 13
215.03475 2
217.0505 3
221.08197 3
227.07086 2
229.05064 4
231.02971 2
243.02992 3
245.04554 5
245.08214 27
247.06113 3
255.03029 7
256.03734 7
257.04531 3
269.04519 2
271.0606 2
273.04018 4
281.04535 6
283.02496 3
285.04073 5
289.07227 34
290.0749 2
297.04061 2
297.0752 2
339.08718 8
407.07785 37
408.08027 3

NAME: Procyanidin B3
PRECURSORMZ: 577.13519
PRECURSORTYPE: [M-H]-
FORMULA: C30H26O12
RETENTIONTIME: 2.177
IONMODE: Negative
COMMENT: Spectra extracted with MS2extract R package
INCHIKEY: XFZJEEAOWLFHDH-AVFWISQGSA-N
SMILES: C1C(C(OC2=C1C(=CC(=C2C3C(C(OC4=CC(=CC(=C34)O)O)C5=CC(=C(C=C5)O)O)O)O)O)C6=CC(=C(C=C6)O)O)O
CCS: 
COLLISIONENERGY: 20eV
INSTRUMENTTYPE: ESI-QTOF
Num Peaks: 23
125.02384 50
137.02388 4
161.02401 11
205.04968 2
245.04492 5
245.08089 5
273.03961 6
287.05564 11
289.07122 92
290.07463 5
299.05562 8
329.06582 2
339.08677 3
381.09732 4
407.07696 100
408.0804 8
425.08735 45
426.09081 4
451.10332 21
452.10633 2
559.12422 2
577.13504 18
578.13755 2

NAME: Procyanidin B3
PRECURSORMZ: 577.13519
PRECURSORTYPE: [M-H]-
FORMULA: C30H26O12
RETENTIONTIME: 2.169
IONMODE: Negative
COMMENT: Spectra extracted with MS2extract R package
INCHIKEY: XFZJEEAOWLFHDH-AVFWISQGSA-N
SMILES: C1C(C(OC2=C1C(=CC(=C2C3C(C(OC4=CC(=CC(=C34)O)O)C5=CC(=C(C=C5)O)O)O)O)O)C6=CC(=C(C=C6)O)O)O
CCS: 
COLLISIONENERGY: 40eV
INSTRUMENTTYPE: ESI-QTOF
Num Peaks: 57
109.02944 12
121.02918 3
123.04486 8
125.02419 100
126.02742 2
137.02443 18
149.02393 4
151.03994 13
159.04485 2
161.02418 27
161.05849 5
162.03097 3
163.00341 2
163.03967 3
164.0111 4
165.01906 7
167.03469 2
175.03987 11
175.07402 2
177.019 6
179.03472 7
187.03987 7
188.04729 3
201.05515 2
202.06287 2
203.03461 2
203.07129 12
205.01406 4
205.05041 12
215.03436 2
217.05018 3
221.08163 2
227.07103 2
229.05026 5
231.02972 2
243.02959 4
245.04542 5
245.08166 28
247.06076 2
255.02984 8
255.06126 2
256.03743 7
257.04495 3
269.04568 2
271.06075 2
273.04013 4
281.04536 6
283.02481 3
285.04062 5
289.07176 35
290.07487 2
297.04026 2
297.07523 2
339.08741 9
389.06658 2
407.07726 41
408.0806 3

NAME: Procyanidin C1
PRECURSORMZ: 865.19861
PRECURSORTYPE: [M-H]-
FORMULA: C45H38O18
RETENTIONTIME: 2.468
IONMODE: Negative
COMMENT: Spectra extracted with MS2extract R package
INCHIKEY: MOJZMWJRUKIQGL-XILRTYJMSA-N
SMILES: C1C(C(OC2=C1C(=CC(=C2C3C(C(OC4=C(C(=CC(=C34)O)O)C5C(C(OC6=CC(=CC(=C56)O)O)C7=CC(=C(C=C7)O)O)O)C8=CC(=C(C=C8)O)O)O)O)O)C9=CC(=C(C=C9)O)O)O
CCS: 
COLLISIONENERGY: 20eV
INSTRUMENTTYPE: ESI-QTOF
Num Peaks: 32
125.02455 9
161.02438 2
243.0299 2
245.04556 4
261.04006 2
287.05639 14
289.07185 7
299.05586 2
405.06126 2
407.07711 8
413.08793 8
423.0721 5
425.08767 10
449.08746 5
451.10346 6
533.10857 2
543.09352 3
561.10273 2
575.11941 23
576.12251 3
577.13532 27
578.13824 4
587.11901 4
695.14085 16
696.14352 3
713.15149 17
714.15405 3
739.16643 12
740.16908 2
847.18809 2
865.19869 100
866.20241 21

NAME: Procyanidin C1
PRECURSORMZ: 865.19861
PRECURSORTYPE: [M-H]-
FORMULA: C45H38O18
RETENTIONTIME: 2.471
IONMODE: Negative
COMMENT: Spectra extracted with MS2extract R package
INCHIKEY: MOJZMWJRUKIQGL-XILRTYJMSA-N
SMILES: C1C(C(OC2=C1C(=CC(=C2C3C(C(OC4=C(C(=CC(=C34)O)O)C5C(C(OC6=CC(=CC(=C56)O)O)C7=CC(=C(C=C7)O)O)O)C8=CC(=C(C=C8)O)O)O)O)O)C9=CC(=C(C=C9)O)O)O
CCS: 
COLLISIONENERGY: 40eV
INSTRUMENTTYPE: ESI-QTOF
Num Peaks: 56
125.02445 100
126.02772 2
137.02448 6
151.03997 4
161.0248 22
164.01148 2
165.01931 4
175.04003 4
177.01925 5
205.0501 2
217.05061 5
219.02991 3
243.03069 21
245.04593 14
245.08057 7
255.02977 3
261.04062 14
269.04575 3
273.04027 5
283.02512 2
285.04023 2
287.0563 47
288.05975 3
289.07186 62
290.07498 4
299.0561 7
315.08699 3
327.05064 2
329.06617 3
339.08733 3
341.06635 5
381.097 5
383.0771 2
391.04681 2
395.07727 2
405.06214 9
407.07748 61
408.08079 6
413.08764 6
417.06138 2
423.07268 4
425.08784 13
435.07147 2
449.08801 8
451.10345 11
452.09284 2
525.08252 7
543.09376 6
559.12411 2
561.10339 2
569.10817 2
575.11865 2
577.13466 6
587.11883 2
695.14055 4
713.15015 2

NAME: Procyanidin
PRECURSORMZ: 593.13013
PRECURSORTYPE: [M-H]-
FORMULA: C30H26O13
RETENTIONTIME: 2.595
IONMODE: Negative
COMMENT: Spectra extracted with MS2extract R package
INCHIKEY: HGVVOUNEGQIPMS-UHFFFAOYSA-N
SMILES: C1C(C(OC2=CC(=CC(=C21)O)O)C3=CC(=C(C=C3)O)O)OC4(C(C(C5=C(C=C(C=C5O4)O)O)O)O)C6=CC(=C(C=C6)O)O
CCS: 
COLLISIONENERGY: 20eV
INSTRUMENTTYPE: ESI-QTOF
Num Peaks: 481
107.10183 2
112.52567 2
114.646 2
114.70512 3
117.3722 3
123.04604 10
125.02397 100
125.07257 2
125.41224 2
125.46825 2
129.43066 2
130.82077 5
131.38433 5
131.66894 2
132.72242 2
136.40457 7
137.02108 11
141.02221 2
141.81337 2
144.45177 2
149.59434 2
150.95419 7
150.97613 4
151.04149 22
153.01629 9
154.90083 2
161.02311 6
163.00351 10
163.07739 2
163.11186 7
164.00804 11
165.01535 8
165.62589 2
167.03271 5
168.17666 2
169.69513 5
173.05945 6
175.00721 8
175.03553 3
175.26564 2
177.01766 16
181.50722 2
182.01988 2
185.72064 2
189.44015 4
190.02509 9
193.05045 14
193.29007 2
195.02802 15
195.43518 2
198.47488 2
199.38164 2
199.46384 2
200.87868 7
211.6758 2
223.77766 3
228.68116 2
228.93139 2
229.28127 6
230.57802 2
242.06232 5
242.11461 2
243.03053 10
244.02395 7
244.62916 2
244.68392 2
245.04775 22
245.21191 2
245.85903 2
246.80736 3
249.02584 2
253.23479 3
253.71667 2
256.7336 2
257.05184 5
257.07905 9
257.15303 4
260.20965 2
261.03607 2
264.92106 8
269.04225 16
271.01706 6
271.06741 2
272.88026 2
274.0647 2
279.94129 3
283.02989 2
283.05756 3
283.28008 7
284.73923 2
285.0351 50
286.0423 10
287.06107 17
287.47726 2
288.05448 11
288.93532 2
289.07307 47
289.40386 2
289.47027 3
290.07334 2
292.51253 3
293.07206 6
297.44234 4
299.9461 3
301.03738 9
302.03947 4
302.19068 4
304.04957 6
304.08522 2
304.60387 2
305.06595 30
306.06553 12
306.98283 2
307.00103 2
307.08118 6
307.26303 2
308.10407 4
312.06075 4
314.87969 2
316.02235 3
321.44084 2
321.91672 3
322.3188 8
322.99166 8
323.12536 8
325.00946 8
325.51137 2
326.05196 6
326.23715 3
326.96066 2
327.0204 4
327.05083 7
327.08038 2
328.05367 2
332.71613 2
332.97483 3
336.70282 2
341.09984 7
341.15461 8
344.75996 10
344.85772 2
347.06576 2
348.74003 3
349.64352 3
350.70258 2
354.01576 4
355.11594 6
360.8394 3
361.07284 5
361.90678 2
364.55071 10
365.85825 4
369.10486 3
369.13949 2
369.31755 3
375.98414 7
377.02213 2
380.18835 3
381.71779 3
385.73248 4
387.56644 5
388.86591 3
390.41257 2
393.09701 4
394.38183 3
395.0684 3
405.05802 5
406.4837 9
407.01635 6
407.07369 27
409.08906 7
411.07129 15
412.81083 3
413.42483 2
414.01909 3
416.06217 2
417.058 8
419.94722 2
420.69183 4
422.25247 2
423.06903 50
423.41627 2
424.67839 2
424.7824 3
425.08597 7
435.06715 3
436.04503 2
440.06264 2
440.11216 6
440.37759 2
441.08119 16
441.58023 2
442.07697 2
444.06119 4
444.39033 2
446.04038 2
447.07352 12
448.06646 6
448.11037 4
449.08626 29
449.54256 2
449.72894 4
452.07566 4
454.08494 11
456.78124 2
457.30757 2
465.08418 4
467.0988 19
468.10358 9
470.07803 7
471.04945 3
471.09677 9
473.41083 4
480.8596 2
483.09422 2
493.16275 7
501.07402 6
502.40822 5
504.27233 2
507.57461 5
510.01484 6
513.07073 4
519.19226 2
521.13506 3
521.91355 2
523.67008 2
523.84516 2
531.49695 2
533.17135 2
533.21322 4
536.08475 2
539.10155 6
540.41489 3
544.30999 3
547.10088 2
547.19368 6
547.98162 3
548.67065 5
549.13865 2
550.00999 2
551.95934 3
554.6832 4
555.3203 5
555.43907 3
555.94253 4
557.09956 12
557.13963 8
557.38615 3
559.53824 4
560.08594 2
562.08734 2
569.06363 3
569.10785 2
571.00098 3
571.07619 6
572.2399 2
573.10237 3
573.42163 4
573.99701 4
574.1041 2
575.11804 62
576.11502 6
577.1254 5
578.12439 4
583.05994 8
585.01093 2
585.10462 6
589.03636 2
593.12971 52
593.25048 5
593.69514 2
593.73866 2
593.78599 2
593.907 2
594.13065 15
594.79247 8
594.94968 2
595.01764 2
595.1947 2
597.05384 6
597.09055 3
597.64084 2
599.12455 5
601.13993 4
602.44557 3
604.36041 2
607.58006 3
608.8794 2
612.49636 2
613.07432 4
614.10731 3
615.11022 6
616.12076 6
621.37447 2
622.941 3
626.44326 3
636.35686 4
650.68098 10
655.73255 5
659.38204 2
665.0405 4
667.08603 3
672.10105 2
684.56487 8
684.74217 3
691.10407 2
691.62429 3
692.55397 3
693.13057 3
694.01856 4
694.12213 5
694.35076 8
695.12862 8
696.12935 5
696.50801 2
697.14403 3
697.17299 4
698.14873 6
699.12111 3
706.04987 3
711.10603 2
712.19746 2
716.11365 2
718.51601 2
720.18618 7
724.39512 2
727.76859 3
733.05249 5
735.13344 4
738.15971 2
738.32107 3
740.22099 3
741.11643 3
748.08134 3
748.46248 2
749.11069 3
750.33862 2
750.98379 2
763.10744 2
773.12935 3
774.65759 2
775.09946 3
779.81312 7
791.70417 2
796.5053 3
803.16146 2
804.94614 3
810.18243 3
811.22719 2
815.86601 8
818.18 2
828.12425 2
828.27369 3
828.79573 2
830.55038 2
832.18282 4
843.17329 4
846.02089 3
847.25636 6
852.08376 5
855.15281 4
856.16383 4
856.34611 2
861.14534 4
862.16899 3
865.31993 2
867.12411 2
867.34973 3
870.67153 3
871.18592 9
873.17502 5
875.34581 10
880.88794 2
882.65091 2
885.14806 2
885.83928 3
886.2295 10
886.90019 2
899.1212 6
900.85408 8
905.67993 5
912.98994 2
914.70143 2
915.32392 4
934.98786 8
940.93457 2
943.24392 4
943.67785 2
945.13979 2
946.06124 2
947.60416 5
952.11652 6
962.27843 2
965.03241 2
969.6164 5
971.7746 3
975.34469 3
975.49531 3
975.59021 2
998.11555 2
1016.19523 2
1024.5126 4
1030.6948 2
1033.99595 2
1040.64808 2
1042.65302 10
1043.20042 2
1045.4624 4
1051.18395 3
1060.26599 3
1060.84729 3
1061.05921 3
1073.14309 3
1087.23589 2
1088.21033 2
1088.5161 4
1103.03055 2
1109.46072 2
1123.31822 2
1136.35041 2
1143.9961 8
1149.71582 2
1153.12022 2
1156.49436 2
1157.76255 2
1201.83831 3
1208.53831 4
1211.51057 2
1211.66641 2
1214.21024 2
1219.7173 2
1229.66922 2
1267.52222 3
1267.69425 2
1273.33568 2
1283.32988 2
1309.82992 3
1320.08167 2
1320.42277 2
1330.00717 2
1338.58695 2
1345.58964 5
1355.42213 2
1362.89043 6
1365.0514 2
1365.83186 3
1372.48682 2
1382.85704 4
1389.16025 4
1405.46261 5
1413.30887 2
1414.60098 2
1455.26276 5
1459.00207 3
1466.50224 2
1492.67702 7
1498.4036 2
1508.28676 4
1512.74312 4
1531.59819 2
1534.25342 2
1541.23371 2
1550.30369 7
1558.13561 5
1562.78394 4
1580.08968 2
1585.60966 2
1594.19169 2
1594.58223 3
1594.9149 2
1601.18199 3
1606.4534 2
1608.10332 2
1613.49023 2
1618.94577 3
1620.38413 4
1625.31285 2
1632.79375 2
1644.06384 6
1650.3404 7
1666.85692 2

NAME: Procyanidin
PRECURSORMZ: 593.13013
PRECURSORTYPE: [M-H]-
FORMULA: C30H26O13
RETENTIONTIME: 2.595
IONMODE: Negative
COMMENT: Spectra extracted with MS2extract R package
INCHIKEY: HGVVOUNEGQIPMS-UHFFFAOYSA-N
SMILES: C1C(C(OC2=CC(=CC(=C21)O)O)C3=CC(=C(C=C3)O)O)OC4(C(C(C5=C(C=C(C=C5O4)O)O)O)O)C6=CC(=C(C=C6)O)O
CCS: 
COLLISIONENERGY: 40eV
INSTRUMENTTYPE: ESI-QTOF
Num Peaks: 398
100.97434 2
104.88233 2
104.94532 3
105.90034 5
106.74199 2
107.01451 7
109.02831 18
109.14776 2
111.01643 4
116.44252 2
117.00664 2
120.08478 5
120.42399 2
121.02926 10
121.35682 2
122.03625 5
123.04734 5
123.88195 2
125.02348 100
125.06599 2
125.15467 2
125.18002 3
125.33071 2
126.02797 10
127.70327 2
128.02231 2
130.46446 3
131.11461 3
132.39117 4
133.02767 5
134.03738 7
136.01241 2
137.02316 15
138.02995 2
140.88968 4
142.02071 5
143.05065 6
147.87863 3
148.53341 2
149.02351 8
150.03289 2
150.52762 2
150.92298 2
151.00357 4
151.03895 36
152.60758 4
153.34154 2
155.9621 2
158.86265 5
159.52087 2
160.5656 8
161.02365 26
162.03353 5
162.22002 2
162.6386 2
162.99964 7
164.00763 13
164.4191 2
165.01845 5
166.88985 3
166.99282 3
167.03105 7
167.52365 3
171.79838 2
172.90364 3
174.06235 5
175.00354 2
175.03814 6
175.93982 3
176.04204 6
177.01706 13
177.05797 4
177.60564 2
178.7488 3
179.0319 7
179.6477 2
181.06486 2
182.64749 2
183.69014 2
183.72487 3
185.05986 5
189.05992 4
190.02456 3
191.02995 4
193.01008 3
193.04735 2
195.00037 2
197.04168 7
198.00209 2
199.69022 4
201.05016 3
201.18038 2
201.69345 2
202.0642 3
203.07733 3
205.01277 5
205.04621 4
206.0173 3
206.04895 4
210.28233 3
213.05577 6
215.0315 3
216.4016 5
217.04736 6
217.48169 2
218.01597 3
219.06074 2
220.29083 4
220.75409 2
221.04439 5
222.0633 5
222.11581 2
225.06802 6
227.01665 6
227.95142 2
229.05096 3
230.05821 4
231.03039 4
231.06475 3
233.04521 3
239.07228 2
239.87642 3
241.04676 5
241.06733 5
243.02783 27
243.37942 4
245.04256 8
245.08298 13
246.01389 5
246.08013 7
247.05971 7
252.61764 2
254.99248 2
255.05573 5
257.04345 5
258.18304 2
259.0155 2
259.0639 2
260.02169 6
260.06223 6
261.02639 3
261.07077 6
261.97535 2
265.04651 6
267.02072 2
267.0658 4
269.0459 15
271.067 2
272.03199 5
273.02956 4
275.05614 5
276.03653 3
279.0277 5
281.03939 3
283.02972 5
283.80752 4
284.08137 3
285.03999 37
286.04061 6
286.45478 2
287.05437 2
287.65263 4
288.01764 4
289.06991 28
289.36365 2
289.87863 2
291.14622 5
293.60263 4
294.11437 5
295.05638 2
295.83004 2
297.03993 3
299.05432 9
299.54083 2
301.0305 4
303.90201 3
306.04925 5
306.924 4
307.02039 6
307.06153 6
307.13471 3
307.23963 2
308.78222 2
309.03529 5
309.08242 3
311.03441 4
311.09728 4
312.50468 8
312.93073 5
315.04596 3
316.05218 2
319.05229 3
319.17937 3
322.0235 6
323.05661 3
324.02724 2
324.60878 2
327.01604 2
327.05116 5
328.04319 2
329.59478 2
331.25855 3
331.30973 6
336.02126 2
342.02847 2
349.28496 3
351.04531 5
351.66825 3
352.83456 2
353.06596 4
353.102 4
357.06096 4
357.77855 2
363.08399 3
365.06735 2
366.64284 2
370.04274 4
371.18412 3
377.08251 2
379.06947 2
380.16365 2
381.09833 7
384.07573 5
387.04889 13
389.05616 2
389.08475 3
393.54533 7
399.05417 3
405.06134 5
405.15328 3
407.07424 22
407.19349 3
409.09616 4
409.46794 2
411.06943 2
412.07779 2
415.41334 2
421.08928 6
423.07423 10
426.27011 5
426.63583 3
427.08109 2
428.5444 2
429.07124 2
431.43988 2
433.25984 3
435.07233 5
436.79571 9
437.1787 4
437.39464 2
439.91053 5
441.04267 5
441.09134 6
443.08969 3
444.10384 2
449.09191 5
450.06833 6
452.06768 3
453.50171 2
458.14303 5
462.09744 3
463.3945 2
469.83969 2
471.10663 5
473.10398 2
479.60387 2
481.99955 2
483.02915 2
486.39019 3
486.87279 2
489.25934 2
491.91216 2
495.1027 3
496.04344 2
498.10563 4
510.87357 2
512.50183 4
513.07967 3
514.11114 3
515.08948 2
530.02261 2
530.08247 5
531.24756 4
534.98822 2
539.09364 6
540.10213 2
542.6068 2
542.7364 2
544.7414 2
564.04979 4
569.87926 4
575.50478 2
576.63069 7
593.50798 2
606.49731 8
616.50289 3
631.45001 2
633.13328 3
654.4342 3
661.60345 2
683.90361 2
694.3003 2
694.43931 2
695.37927 3
703.24793 2
707.01888 2
721.08675 3
738.69738 4
769.84399 2
770.9162 2
771.88132 2
772.3199 4
793.57756 3
802.6497 2
813.95782 2
819.96536 2
832.22349 6
833.87394 2
834.77059 2
840.41652 3
844.64436 2
855.12809 2
862.17809 2
868.09396 2
868.90666 2
869.07641 2
871.77782 2
898.76115 2
942.26869 4
954.97733 2
962.02316 7
975.2956 2
985.34316 2
987.30064 4
988.05195 2
995.73459 2
1005.22954 2
1006.64484 6
1019.86974 6
1028.59065 4
1035.45096 5
1052.72631 3
1061.20729 5
1067.3758 3
1093.47871 2
1100.54391 2
1100.73659 2
1123.87032 2
1150.1039 2
1150.26732 3
1164.23707 2
1169.26021 7
1174.28484 8
1182.79437 3
1211.62133 2
1211.71355 5
1217.82836 7
1228.71729 2
1241.24245 2
1252.98593 2
1271.62127 3
1274.26875 2
1296.88103 5
1322.84611 4
1344.20362 2
1347.18806 3
1356.56602 2
1380.09132 9
1393.15154 2
1398.33652 9
1405.44001 6
1409.23716 3
1423.30091 5
1426.92986 2
1429.76606 3
1480.11012 3
1488.60517 2
1505.2532 4
1517.62369 2
1521.95386 5
1531.04148 2
1535.93503 4
1536.88505 2
1554.62455 2
1580.72623 3
1585.85737 2
1589.58798 2
1590.60213 3
1600.76444 2
1626.16573 2
1629.25165 2
1630.21339 2
1663.19507 4
1668.76016 2
1673.70672 2
1674.22573 2
1675.18737 2
1695.96602 2

NAME: Quercetin 3-O-sophoroside
PRECURSORMZ: 625.14111
PRECURSORTYPE: [M-H]-
FORMULA: C27H30O17
RETENTIONTIME: 2.585
IONMODE: Negative
COMMENT: Spectra extracted with MS2extract R package
INCHIKEY: RDUAJIJVNHKTQC-IROKYFGSSA-N
SMILES: C1=CC(=C(C=C1C2=C(C(=O)C3=C(C=C(C=C3O2)O)O)OC4C(C(C(C(O4)CO)O)O)OC5C(C(C(C(O5)CO)O)O)O)O)O
CCS: 
COLLISIONENERGY: 40eV
INSTRUMENTTYPE: ESI-QTOF
Num Peaks: 7
150.99492 2
178.98969 2
255.02097 4
271.01604 11
299.01085 2
300.01959 100
301.02495 14

NAME: Quercetin
PRECURSORMZ: 301.0354
PRECURSORTYPE: [M-H]-
FORMULA: C15H10O7
RETENTIONTIME: 3.59
IONMODE: Negative
COMMENT: Spectra extracted with MS2extract R package
INCHIKEY: REFJWTPEDVJJIY-UHFFFAOYSA-N
SMILES: C1=CC(=C(C=C1C2=C(C(=O)C3=C(C=C(C=C3O2)O)O)O)O)O
CCS: 
COLLISIONENERGY: 40eV
INSTRUMENTTYPE: ESI-QTOF
Num Peaks: 38
107.01368 90
108.02157 11
109.02948 13
117.03441 2
119.01369 2
120.02135 2
121.02932 100
124.01635 4
125.02477 2
133.02947 4
135.0085 2
135.04519 3
136.01613 2
137.02425 2
145.02942 3
147.00844 2
148.01609 2
149.02433 9
151.00349 63
158.03697 2
159.04516 6
161.0243 8
162.03206 2
163.00341 4
163.03964 2
164.01125 6
175.03981 2
177.05545 2
178.99848 2
183.04486 3
187.03979 3
199.03968 3
201.0554 2
211.03982 3
227.03483 4
243.02954 3
245.04561 2
255.02961 2

NAME: Quercetin-3-galactoside
PRECURSORMZ: 463.08771
PRECURSORTYPE: [M-H]-
FORMULA: C21H20O12
RETENTIONTIME: 2.84
IONMODE: Negative
COMMENT: Spectra extracted with MS2extract R package
INCHIKEY: OVSQVDMCBVZWGM-DTGCRPNFSA-N
SMILES: C1=CC(=C(C=C1C2=C(C(=O)C3=C(C=C(C=C3O2)O)O)OC4C(C(C(C(O4)CO)O)O)O)O)O
CCS: 
COLLISIONENERGY: 40eV
INSTRUMENTTYPE: ESI-QTOF
Num Peaks: 16
107.01535 2
121.03106 2
151.00536 13
163.00545 3
179.00063 5
227.03682 3
243.03209 11
245.04755 2
254.02399 3
255.03192 37
256.03628 2
271.02725 80
272.03311 5
283.02675 2
300.0303 100
301.03669 16

NAME: Quercetin-3-glucoside
PRECURSORMZ: 463.0882
PRECURSORTYPE: [M-H]-
FORMULA: C21H20O12
RETENTIONTIME: 2.878
IONMODE: Negative
COMMENT: Spectra extracted with MS2extract R package
INCHIKEY: OVSQVDMCBVZWGM-QSOFNFLRSA-M
SMILES: C1=CC(=C(C=C1C2=C(C(=O)C3=C(C=C(C=C3O2)O)O)OC4C(C(C(C(O4)CO)O)O)O)O)[O-]
CCS: 
COLLISIONENERGY: 20eV
INSTRUMENTTYPE: ESI-QTOF
Num Peaks: 9
151.00396 2
178.99876 2
255.03033 2
271.02516 4
300.0286 100
301.03605 71
302.03929 3
463.08936 71
464.09271 4

NAME: Quercetin-3-glucoside
PRECURSORMZ: 463.0882
PRECURSORTYPE: [M-H]-
FORMULA: C21H20O12
RETENTIONTIME: 2.876
IONMODE: Negative
COMMENT: Spectra extracted with MS2extract R package
INCHIKEY: OVSQVDMCBVZWGM-QSOFNFLRSA-M
SMILES: C1=CC(=C(C=C1C2=C(C(=O)C3=C(C=C(C=C3O2)O)O)OC4C(C(C(C(O4)CO)O)O)O)O)[O-]
CCS: 
COLLISIONENERGY: 40eV
INSTRUMENTTYPE: ESI-QTOF
Num Peaks: 18
107.01304 2
121.02864 2
151.00266 13
163.00289 3
178.99796 5
211.03926 2
227.03412 3
243.02953 10
245.04467 2
254.0215 3
255.02922 38
256.03352 2
271.02441 81
272.03029 5
273.0396 2
283.02385 2
300.02744 100
301.03427 17

NAME: Quercetin-3-O-glucuronide
PRECURSORMZ: 477.06689
PRECURSORTYPE: [M-H]-
FORMULA: C21H18O13
RETENTIONTIME: 2.845
IONMODE: Negative
COMMENT: Spectra extracted with MS2extract R package
INCHIKEY: DUBCCGAQYVUYEU-ZUGPOPFOSA-N
SMILES: C1=CC(=C(C=C1C2=C(C(=O)C3=C(C=C(C=C3O2)O)O)OC4C(C(C(C(O4)C(=O)O)O)O)O)O)O
CCS: 
COLLISIONENERGY: 20eV
INSTRUMENTTYPE: ESI-QTOF
Num Peaks: 6
113.02419 2
151.00355 3
178.99848 3
301.03685 100
302.03875 6
477.0673 8

NAME: Quercetin-3-O-glucuronide
PRECURSORMZ: 477.06689
PRECURSORTYPE: [M-H]-
FORMULA: C21H18O13
RETENTIONTIME: 2.845
IONMODE: Negative
COMMENT: Spectra extracted with MS2extract R package
INCHIKEY: DUBCCGAQYVUYEU-ZUGPOPFOSA-N
SMILES: C1=CC(=C(C=C1C2=C(C(=O)C3=C(C=C(C=C3O2)O)O)OC4C(C(C(C(O4)C(=O)O)O)O)O)O)O
CCS: 
COLLISIONENERGY: 40eV
INSTRUMENTTYPE: ESI-QTOF
Num Peaks: 31
107.01411 12
109.02963 7
121.02947 19
135.0087 2
149.02443 3
151.00381 100
152.00771 2
159.04523 2
163.00402 13
163.03804 2
164.01104 2
178.99862 44
183.04492 2
187.04018 2
190.99874 2
193.01408 2
201.05564 3
211.04029 7
227.03496 4
229.05077 6
239.03516 3
245.04589 11
255.03003 17
256.03649 2
257.04528 2
271.02455 2
273.04082 10
283.02498 9
300.02769 2
301.03583 86
302.03903 3

NAME: Quercitrin
PRECURSORMZ: 447.0928
PRECURSORTYPE: [M-H]-
FORMULA: C21H20O11
RETENTIONTIME: 3.05
IONMODE: Negative
COMMENT: Spectra extracted with MS2extract R package
INCHIKEY: OXGUCUVFOIWWQJ-HQBVPOQASA-N
SMILES: CC1C(C(C(C(O1)OC2=C(OC3=CC(=CC(=C3C2=O)O)O)C4=CC(=C(C=C4)O)O)O)O)O
CCS: 
COLLISIONENERGY: 20eV
INSTRUMENTTYPE: ESI-QTOF
Num Peaks: 9
151.00368 2
178.99854 2
255.02972 2
271.02467 4
300.02805 100
301.03575 98
302.03911 4
447.09342 53
448.09691 3

NAME: Quercitrin
PRECURSORMZ: 447.0928
PRECURSORTYPE: [M-H]-
FORMULA: C21H20O11
RETENTIONTIME: 3.05
IONMODE: Negative
COMMENT: Spectra extracted with MS2extract R package
INCHIKEY: OXGUCUVFOIWWQJ-HQBVPOQASA-N
SMILES: CC1C(C(C(C(O1)OC2=C(OC3=CC(=CC(=C3C2=O)O)O)C4=CC(=C(C=C4)O)O)O)O)O
CCS: 
COLLISIONENERGY: 40eV
INSTRUMENTTYPE: ESI-QTOF
Num Peaks: 25
107.01395 4
108.02157 2
109.02959 4
121.02957 5
135.00876 2
148.01653 2
151.00374 27
163.00395 7
178.99897 10
211.04014 3
226.02712 2
227.03496 5
229.05065 2
243.0302 15
245.04583 5
254.02207 4
255.03009 51
256.03475 3
271.02523 100
272.03111 6
273.04036 3
283.02466 4
299.01956 2
300.02799 88
301.03526 25

NAME: Quinic acid
PRECURSORMZ: 191.05557
PRECURSORTYPE: [M-H]-
FORMULA: C7H12O6
RETENTIONTIME: 0.328
IONMODE: Negative
COMMENT: Spectra extracted with MS2extract R package
INCHIKEY: AAWZDTNXLSGCEK-LNVDRNJUSA-N
SMILES: C1C(C(C(CC1(C(=O)O)O)O)O)O
CCS: 
COLLISIONENERGY: 20eV
INSTRUMENTTYPE: ESI-QTOF
Num Peaks: 7
109.02932 8
111.04517 8
127.03972 17
137.02422 2
171.0297 4
173.04545 4
191.05631 100

NAME: Quinic acid
PRECURSORMZ: 191.05557
PRECURSORTYPE: [M-H]-
FORMULA: C7H12O6
RETENTIONTIME: 0.333
IONMODE: Negative
COMMENT: Spectra extracted with MS2extract R package
INCHIKEY: AAWZDTNXLSGCEK-LNVDRNJUSA-N
SMILES: C1C(C(C(CC1(C(=O)O)O)O)O)O
CCS: 
COLLISIONENERGY: 40eV
INSTRUMENTTYPE: ESI-QTOF
Num Peaks: 4
108.02211 100
109.03006 65
111.04555 3
127.04032 6

NAME: Rutin
PRECURSORMZ: 609.14618
PRECURSORTYPE: [M-H]-
FORMULA: C27H30O16
RETENTIONTIME: 2.797
IONMODE: Negative
COMMENT: Spectra extracted with MS2extract R package
INCHIKEY: IKGXIBQEEMLURG-NVPNHPEKSA-N
SMILES: CC1C(C(C(C(O1)OCC2C(C(C(C(O2)OC3=C(OC4=CC(=CC(=C4C3=O)O)O)C5=CC(=C(C=C5)O)O)O)O)O)O)O)O
CCS: 
COLLISIONENERGY: 20eV
INSTRUMENTTYPE: ESI-QTOF
Num Peaks: 4
300.02805 14
301.03575 13
609.15002 100
610.15114 15

NAME: Rutin
PRECURSORMZ: 609.14618
PRECURSORTYPE: [M-H]-
FORMULA: C27H30O16
RETENTIONTIME: 2.757
IONMODE: Negative
COMMENT: Spectra extracted with MS2extract R package
INCHIKEY: IKGXIBQEEMLURG-NVPNHPEKSA-N
SMILES: CC1C(C(C(C(O1)OCC2C(C(C(C(O2)OC3=C(OC4=CC(=CC(=C4C3=O)O)O)C5=CC(=C(C=C5)O)O)O)O)O)O)O)O
CCS: 
COLLISIONENERGY: 40eV
INSTRUMENTTYPE: ESI-QTOF
Num Peaks: 9
151.00397 4
178.99889 3
255.03049 5
271.02497 11
272.03154 2
300.02935 100
301.03549 43
302.03904 2
609.14668 4

NAME: Salicylic acid
PRECURSORMZ: 137.02451
PRECURSORTYPE: [M-H]-
FORMULA: C7H6O3
RETENTIONTIME: 3.139
IONMODE: Negative
COMMENT: Spectra extracted with MS2extract R package
INCHIKEY: YGSDEFSMJLZEOE-UHFFFAOYSA-N
SMILES: C1=CC=C(C(=C1)C(=O)O)O
CCS: 
COLLISIONENERGY: 20eV
INSTRUMENTTYPE: ESI-QTOF
Num Peaks: 1
137.02309 100

NAME: Saponarin
PRECURSORMZ: 593.15112
PRECURSORTYPE: [M-H]-
FORMULA: C27H30O15
RETENTIONTIME: 2.507
IONMODE: Negative
COMMENT: Spectra extracted with MS2extract R package
INCHIKEY: HGUVPEBGCAVWID-KETMJRJWSA-N
SMILES: OC1=C2C(OC(C3=CC=C(C=C3)O)=CC2=O)=CC(O[C@@H]4O[C@@H]([C@H]([C@@H]([C@H]4O)O)O)CO)=C1[C@]5([H])O[C@@H]([C@H]([C@@H]([C@H]5O)O)O)CO
CCS: 
COLLISIONENERGY: 20eV
INSTRUMENTTYPE: ESI-QTOF
Num Peaks: 7
297.04013 2
311.05585 6
431.09851 5
473.10857 2
593.15334 100
593.20612 4
594.15458 4

NAME: Saponarin
PRECURSORMZ: 593.15112
PRECURSORTYPE: [M-H]-
FORMULA: C27H30O15
RETENTIONTIME: 2.522
IONMODE: Negative
COMMENT: Spectra extracted with MS2extract R package
INCHIKEY: HGUVPEBGCAVWID-KETMJRJWSA-N
SMILES: OC1=C2C(OC(C3=CC=C(C=C3)O)=CC2=O)=CC(O[C@@H]4O[C@@H]([C@H]([C@@H]([C@H]4O)O)O)CO)=C1[C@]5([H])O[C@@H]([C@H]([C@@H]([C@H]5O)O)O)CO
CCS: 
COLLISIONENERGY: 40eV
INSTRUMENTTYPE: ESI-QTOF
Num Peaks: 24
268.02077 2
269.02796 6
281.02797 3
282.03612 25
282.04722 2
283.04391 18
283.05514 2
293.02834 3
297.02351 54
297.03378 4
297.06001 2
309.02332 2
310.03149 3
311.03934 100
311.07635 4
323.03907 4
341.04995 15
353.05054 2
413.0707 2
430.0752 2
431.08266 12
431.09664 2
473.09394 9
593.13944 19

NAME: Saponarin
PRECURSORMZ: 593.15112
PRECURSORTYPE: [M-H]-
FORMULA: C27H30O15
RETENTIONTIME: 2.527
IONMODE: Negative
COMMENT: Spectra extracted with MS2extract R package
INCHIKEY: HGUVPEBGCAVWID-KETMJRJWSA-N
SMILES: OC1=C2C(OC(C3=CC=C(C=C3)O)=CC2=O)=CC(O[C@@H]4O[C@@H]([C@H]([C@@H]([C@H]4O)O)O)CO)=C1[C@]5([H])O[C@@H]([C@H]([C@@H]([C@H]5O)O)O)CO
CCS: 
COLLISIONENERGY: 60eV
INSTRUMENTTYPE: ESI-QTOF
Num Peaks: 42
77.03978 2
93.03452 2
117.03461 13
135.04525 2
149.0243 5
159.04519 3
161.02453 7
163.00416 2
163.04046 4
165.01918 2
175.00404 3
177.01943 8
178.99882 8
191.03603 4
193.01427 2
197.06058 2
203.03488 2
225.0561 2
227.03545 2
239.07151 3
253.05116 5
268.03799 9
269.04577 21
269.05711 2
281.04608 19
281.05784 2
282.05375 43
282.06508 5
283.06176 73
283.07295 6
293.04659 7
295.02515 21
295.0374 2
295.06193 5
297.0412 100
297.07816 4
309.0407 6
310.04959 4
311.05674 39
311.06903 4
323.05587 5
341.06718 3

NAME: Saponarin
PRECURSORMZ: 593.15112
PRECURSORTYPE: [M-H]-
FORMULA: C27H30O15
RETENTIONTIME: 2.513
IONMODE: Negative
COMMENT: Spectra extracted with MS2extract R package
INCHIKEY: HGUVPEBGCAVWID-KETMJRJWSA-N
SMILES: OC1=C2C(OC(C3=CC=C(C=C3)O)=CC2=O)=CC(O[C@@H]4O[C@@H]([C@H]([C@@H]([C@H]4O)O)O)CO)=C1[C@]5([H])O[C@@H]([C@H]([C@@H]([C@H]5O)O)O)CO
CCS: 
COLLISIONENERGY: 80eV
INSTRUMENTTYPE: ESI-QTOF
Num Peaks: 126
63.02375 4
65.00293 15
67.01862 3
68.99786 4
77.03936 13
79.01854 8
83.01372 4
89.00288 5
89.03901 2
91.01873 6
92.02649 2
92.99839 2
93.03448 13
97.02884 2
103.01833 2
105.03415 4
107.01374 7
109.02923 2
111.00877 3
117.03455 100
117.04222 6
119.0133 3
119.04979 6
120.02199 2
121.02942 14
121.03706 2
125.02409 3
130.04204 2
131.01368 6
133.02941 5
134.0368 2
135.00893 11
135.04543 11
136.01656 4
137.02334 2
145.02918 3
148.01655 4
149.02412 22
149.03322 2
151.00369 8
155.05066 2
157.06665 2
158.0384 2
159.04498 12
161.02432 26
161.03389 3
163.00373 15
163.01268 2
163.04019 11
164.01162 2
165.01959 5
167.05017 3
169.06625 3
171.04446 2
173.02435 2
173.06118 2
175.00377 26
175.01298 3
175.04009 2
176.98299 11
177.01908 24
177.0284 2
178.99858 56
179.00731 6
180.05731 2
181.06627 4
182.03865 2
183.04481 8
185.02391 7
185.02904 2
185.05971 4
190.99984 2
191.03476 4
193.0147 4
195.04562 5
196.05328 4
197.06032 6
199.04191 2
201.05561 5
203.0344 2
209.06037 5
210.06734 2
211.03918 7
211.07601 3
213.05567 4
215.07132 3
221.06047 2
223.03969 8
224.04823 4
225.05515 17
225.06602 2
226.06362 3
227.03489 9
229.0501 2
237.05541 6
238.06348 3
239.03533 5
239.07124 4
240.0435 2
241.0499 3
251.03472 7
252.04284 2
253.01433 2
253.05075 16
253.06233 2
254.05766 3
267.02991 4
268.03713 13
269.04536 29
269.05679 3
281.04579 40
281.05803 4
282.05322 23
282.06534 2
283.06083 42
283.07263 4
293.04541 9
295.02473 44
295.03488 4
295.0615 7
297.04062 43
297.05272 5
308.03255 2
309.04032 3
311.05706 4
323.05714 2

NAME: Scopoletin
PRECURSORMZ: 191.0349
PRECURSORTYPE: [M-H]-
FORMULA: C10H8O4
RETENTIONTIME: 2.886
IONMODE: Negative
COMMENT: Spectra extracted with MS2extract R package
INCHIKEY: RODXRVNMMDRFIK-UHFFFAOYSA-N
SMILES: O=C1C=CC2=CC(OC)=C(O)C=C2O1
CCS: 
COLLISIONENERGY: 20eV
INSTRUMENTTYPE: ESI-QTOF
Num Peaks: 6
104.02735 94
120.02183 20
148.01742 74
148.04507 3
176.01268 100
176.04213 3

NAME: Scopoletin
PRECURSORMZ: 191.0349
PRECURSORTYPE: [M-H]-
FORMULA: C10H8O4
RETENTIONTIME: 2.879
IONMODE: Negative
COMMENT: Spectra extracted with MS2extract R package
INCHIKEY: RODXRVNMMDRFIK-UHFFFAOYSA-N
SMILES: O=C1C=CC2=CC(OC)=C(O)C=C2O1
CCS: 
COLLISIONENERGY: 40eV
INSTRUMENTTYPE: ESI-QTOF
Num Peaks: 7
92.02656 17
104.0268 100
104.03306 6
119.01377 4
120.0217 33
120.0298 2
148.01684 8

NAME: Scopoletin
PRECURSORMZ: 191.0349
PRECURSORTYPE: [M-H]-
FORMULA: C10H8O4
RETENTIONTIME: 2.875
IONMODE: Negative
COMMENT: Spectra extracted with MS2extract R package
INCHIKEY: RODXRVNMMDRFIK-UHFFFAOYSA-N
SMILES: O=C1C=CC2=CC(OC)=C(O)C=C2O1
CCS: 
COLLISIONENERGY: 60eV
INSTRUMENTTYPE: ESI-QTOF
Num Peaks: 46
50.0156 72
50.02086 6
51.02319 35
51.02802 3
62.01492 20
62.02094 3
63.02333 40
63.02866 2
63.99435 2
64.03181 9
64.03746 2
65.00277 100
65.00883 9
65.0212 2
66.01083 12
67.01866 4
68.99757 67
69.00306 7
71.33325 2
73.00766 20
75.02413 8
77.00216 2
78.01076 16
78.01768 3
79.0183 5
89.00193 3
91.01859 53
91.02306 3
91.0268 4
92.0258 56
92.0331 7
103.01913 3
104.02626 58
104.03459 6
119.01287 35
119.01884 2
120.02113 8
147.01025 9
181.3105 3
281.05497 2
413.84259 2
472.44396 2
601.71982 2
638.1823 2
714.9637 2
809.01468 2

NAME: Scopoletin
PRECURSORMZ: 191.0349
PRECURSORTYPE: [M-H]-
FORMULA: C10H8O4
RETENTIONTIME: 2.879
IONMODE: Negative
COMMENT: Spectra extracted with MS2extract R package
INCHIKEY: RODXRVNMMDRFIK-UHFFFAOYSA-N
SMILES: O=C1C=CC2=CC(OC)=C(O)C=C2O1
CCS: 
COLLISIONENERGY: 80eV
INSTRUMENTTYPE: ESI-QTOF
Num Peaks: 51
50.00313 3
50.01566 57
50.02107 4
50.45265 2
51.02353 33
51.02834 4
51.9947 2
53.00261 7
61.00761 9
62.01646 5
63.02339 34
63.02889 2
63.99488 3
64.03153 3
65.00263 100
65.00802 8
65.01941 2
66.01101 7
67.0185 6
68.99763 53
69.00348 5
71.01431 4
71.99997 3
73.00757 28
73.01402 3
74.01629 4
75.02303 3
78.01143 4
79.01767 6
79.02178 2
89.00188 3
91.01871 9
91.02842 2
119.01444 5
145.55702 2
265.52751 2
316.11925 4
316.13168 2
365.12602 3
377.73575 2
410.86271 2
477.0605 3
545.29854 3
583.25221 4
625.38378 2
634.03572 2
656.30628 2
686.72029 2
752.87665 2
775.62176 2
859.33014 4

NAME: Sinapic acid
PRECURSORMZ: 223.06129
PRECURSORTYPE: [M-H]-
FORMULA: C11H12O5
RETENTIONTIME: 2.911
IONMODE: Negative
COMMENT: Spectra extracted with MS2extract R package
INCHIKEY: PCMORTLOPMLEFB-ONEGZZNKSA-N
SMILES: COC1=CC(=CC(=C1O)OC)C=CC(=O)O
CCS: 
COLLISIONENERGY: 20eV
INSTRUMENTTYPE: ESI-QTOF
Num Peaks: 14
93.0345 14
121.02968 24
135.0453 12
149.02494 75
149.05318 3
163.04035 23
164.04833 47
164.07788 2
165.01952 12
179.07127 2
193.01511 100
193.04699 4
207.03022 2
208.03815 22

NAME: Sinapic acid
PRECURSORMZ: 223.06129
PRECURSORTYPE: [M-H]-
FORMULA: C11H12O5
RETENTIONTIME: 2.903
IONMODE: Negative
COMMENT: Spectra extracted with MS2extract R package
INCHIKEY: PCMORTLOPMLEFB-ONEGZZNKSA-N
SMILES: COC1=CC(=CC(=C1O)OC)C=CC(=O)O
CCS: 
COLLISIONENERGY: 40eV
INSTRUMENTTYPE: ESI-QTOF
Num Peaks: 11
53.00307 3
65.00319 5
93.03514 100
93.05725 3
121.0299 36
134.03748 2
135.04533 5
148.01673 4
149.0245 5
165.01946 2
193.01436 2

NAME: Sucrose
PRECURSORMZ: 341.10901
PRECURSORTYPE: [M-H]-
FORMULA: C12H22O11
RETENTIONTIME: 0.328
IONMODE: Negative
COMMENT: Spectra extracted with MS2extract R package
INCHIKEY: CZMRCDWAGMRECN-UGDNZRGBSA-N
SMILES: C(C1C(C(C(C(O1)OC2(C(C(C(O2)CO)O)O)CO)O)O)O)O
CCS: 
COLLISIONENERGY: 20eV
INSTRUMENTTYPE: ESI-QTOF
Num Peaks: 10
101.02453 100
113.02431 78
119.03488 75
125.02449 2
131.03466 13
143.03468 14
149.04545 5
161.04513 12
179.05563 17
341.10845 15

NAME: Sucrose
PRECURSORMZ: 341.10901
PRECURSORTYPE: [M-H]-
FORMULA: C12H22O11
RETENTIONTIME: 0.339
IONMODE: Negative
COMMENT: Spectra extracted with MS2extract R package
INCHIKEY: CZMRCDWAGMRECN-UGDNZRGBSA-N
SMILES: C(C1C(C(C(C(O1)OC2(C(C(C(O2)CO)O)O)CO)O)O)O)O
CCS: 
COLLISIONENERGY: 40eV
INSTRUMENTTYPE: ESI-QTOF
Num Peaks: 4
101.024 100
111.00812 3
113.02396 69
119.03414 10

NAME: Tamarixetin
PRECURSORMZ: 315.05099
PRECURSORTYPE: [M-H]-
FORMULA: C16H12O7
RETENTIONTIME: 4.093
IONMODE: Negative
COMMENT: Spectra extracted with MS2extract R package
INCHIKEY: FPLMIPQZHHQWHN-UHFFFAOYSA-N
SMILES: OC1=CC(O)=C(C(C(O)=C(C2=CC=C(OC)C(O)=C2)O3)=O)C3=C1
CCS: 
COLLISIONENERGY: 20eV
INSTRUMENTTYPE: ESI-QTOF
Num Peaks: 7
107.01394 2
151.00401 7
164.01172 2
271.02498 2
300.02959 100
300.11812 3
315.05157 9

NAME: Tamarixetin
PRECURSORMZ: 315.05099
PRECURSORTYPE: [M-H]-
FORMULA: C16H12O7
RETENTIONTIME: 4.084
IONMODE: Negative
COMMENT: Spectra extracted with MS2extract R package
INCHIKEY: FPLMIPQZHHQWHN-UHFFFAOYSA-N
SMILES: OC1=CC(O)=C(C(C(O)=C(C2=CC=C(OC)C(O)=C2)O3)=O)C3=C1
CCS: 
COLLISIONENERGY: 40eV
INSTRUMENTTYPE: ESI-QTOF
Num Peaks: 74
63.02395 100
63.0292 5
65.00322 44
65.00889 3
80.0268 2
83.01388 48
83.02042 3
91.0188 4
92.02723 2
94.00592 8
95.01385 3
96.02187 2
107.01397 62
107.0214 4
108.02181 52
108.02922 4
109.02986 2
117.03466 2
119.0136 2
120.02172 13
122.00092 6
124.0168 5
135.0088 9
136.01696 15
143.05086 2
145.02968 2
146.03733 2
148.01695 40
148.02486 3
149.99619 4
151.00395 44
151.01255 3
152.0115 4
159.04498 3
161.02472 2
163.00401 33
163.01276 2
164.01179 26
164.02075 2
171.04547 4
172.05296 3
173.02464 2
174.03235 4
175.03984 2
182.03784 2
183.04551 10
185.02472 2
187.04052 5
188.048 2
189.01966 4
198.03248 2
199.04035 8
200.04829 2
201.01978 3
202.0272 2
203.03522 2
211.04029 6
215.03535 10
216.04318 5
226.02769 3
227.03536 18
227.04546 2
229.01413 2
243.03035 18
243.04081 2
244.03789 2
255.03026 25
255.04073 2
271.02513 31
271.03576 3
283.02516 14
299.02028 5
300.02784 11
300.04016 2

NAME: Tamarixetin
PRECURSORMZ: 315.05099
PRECURSORTYPE: [M-H]-
FORMULA: C16H12O7
RETENTIONTIME: 4.074
IONMODE: Negative
COMMENT: Spectra extracted with MS2extract R package
INCHIKEY: FPLMIPQZHHQWHN-UHFFFAOYSA-N
SMILES: OC1=CC(O)=C(C(C(O)=C(C2=CC=C(OC)C(O)=C2)O3)=O)C3=C1
CCS: 
COLLISIONENERGY: 60eV
INSTRUMENTTYPE: ESI-QTOF
Num Peaks: 61
51.02407 5
63.02402 100
63.02965 5
65.0033 87
65.00887 6
67.01893 2
68.99813 3
79.0189 3
80.02677 2
83.014 22
89.00373 2
91.01914 7
93.03458 3
94.00595 3
95.01392 9
101.04006 2
105.03461 2
107.01403 12
108.02177 43
108.02921 4
109.02962 5
117.03475 10
119.01375 5
120.02185 6
129.03489 2
132.02184 2
133.02967 7
135.00895 9
141.03493 3
143.05085 5
145.02975 6
146.03749 2
147.00888 3
148.01703 10
153.03492 2
154.0427 2
155.05064 3
157.03026 3
159.04528 4
161.02444 2
163.00397 21
163.01316 2
169.02958 2
171.04509 8
173.02495 3
174.03282 2
182.03778 4
183.04536 8
185.0243 2
187.0403 6
189.02004 2
197.02466 2
198.03302 3
199.04024 6
201.01982 3
215.03583 3
226.02739 2
227.03514 3
243.03041 3
255.03007 3
271.02534 2

NAME: Tamarixetin
PRECURSORMZ: 315.05099
PRECURSORTYPE: [M-H]-
FORMULA: C16H12O7
RETENTIONTIME: 4.078
IONMODE: Negative
COMMENT: Spectra extracted with MS2extract R package
INCHIKEY: FPLMIPQZHHQWHN-UHFFFAOYSA-N
SMILES: OC1=CC(O)=C(C(C(O)=C(C2=CC=C(OC)C(O)=C2)O3)=O)C3=C1
CCS: 
COLLISIONENERGY: 80eV
INSTRUMENTTYPE: ESI-QTOF
Num Peaks: 33
51.0239 7
63.02397 60
63.02956 4
65.0033 100
65.00891 6
67.01879 4
68.99802 6
79.01918 3
83.01384 5
89.03979 4
91.01893 8
92.02698 2
93.0349 4
95.01399 7
101.04032 3
107.01389 3
108.02186 16
108.02939 2
109.02969 5
115.05538 2
117.03481 9
119.01394 5
129.03465 2
132.02181 3
133.02984 4
135.00876 4
141.03481 3
143.05039 3
145.02981 4
147.00908 2
163.00411 2
169.02993 2
197.02482 2

NAME: Trilobatin
PRECURSORMZ: 435.12909
PRECURSORTYPE: [M-H]-
FORMULA: C21H24O10
RETENTIONTIME: 3.345
IONMODE: Negative
COMMENT: Spectra extracted with MS2extract R package
INCHIKEY: GSTCPEBQYSOEHV-QNDFHXLGSA-N
SMILES: C1=CC(=CC=C1CCC(=O)C2=C(C=C(C=C2O)OC3C(C(C(C(O3)CO)O)O)O)O)O
CCS: 
COLLISIONENERGY: 20eV
INSTRUMENTTYPE: ESI-QTOF
Num Peaks: 9
167.03405 20
191.03404 4
209.04457 4
273.07619 100
274.07925 4
297.0761 16
315.08681 6
327.08628 2
435.12861 2

NAME: Trilobatin
PRECURSORMZ: 435.12909
PRECURSORTYPE: [M-H]-
FORMULA: C21H24O10
RETENTIONTIME: 3.346
IONMODE: Negative
COMMENT: Spectra extracted with MS2extract R package
INCHIKEY: GSTCPEBQYSOEHV-QNDFHXLGSA-N
SMILES: C1=CC(=CC=C1CCC(=O)C2=C(C=C(C=C2O)OC3C(C(C(C(O3)CO)O)O)O)O)O
CCS: 
COLLISIONENERGY: 40eV
INSTRUMENTTYPE: ESI-QTOF
Num Peaks: 15
119.04983 15
123.04464 33
125.02405 11
135.04433 2
149.0237 2
151.00293 2
167.03447 100
168.03775 2
179.03446 6
181.04997 3
189.05502 3
191.03425 6
209.04487 3
229.08642 2
273.07686 15

NAME: Ursolic acid
PRECURSORMZ: 455.35251
PRECURSORTYPE: [M-H]-
FORMULA: C30H48O3
RETENTIONTIME: 7.272
IONMODE: Negative
COMMENT: Spectra extracted with MS2extract R package
INCHIKEY: WCGUUGGRBIKTOS-GPOJBZKASA-N
SMILES: CC1CCC2(CCC3(C(=CCC4C3(CCC5C4(CCC(C5(C)C)O)C)C)C2C1C)C)C(=O)O
CCS: 
COLLISIONENERGY: 20eV
INSTRUMENTTYPE: ESI-QTOF
Num Peaks: 2
455.35326 100
456.35538 9

NAME: Ursolic acid
PRECURSORMZ: 455.35251
PRECURSORTYPE: [M-H]-
FORMULA: C30H48O3
RETENTIONTIME: 7.272
IONMODE: Negative
COMMENT: Spectra extracted with MS2extract R package
INCHIKEY: WCGUUGGRBIKTOS-GPOJBZKASA-N
SMILES: CC1CCC2(CCC3(C(=CCC4C3(CCC5C4(CCC(C5(C)C)O)C)C)C2C1C)C)C(=O)O
CCS: 
COLLISIONENERGY: 40eV
INSTRUMENTTYPE: ESI-QTOF
Num Peaks: 2
455.35369 100
456.35626 8

NAME: Vanillic acid
PRECURSORMZ: 167.0351
PRECURSORTYPE: [M-H]-
FORMULA: C8H8O4
RETENTIONTIME: 2.386
IONMODE: Negative
COMMENT: Spectra extracted with MS2extract R package
INCHIKEY: WKOLLVMJNQIZCI-UHFFFAOYSA-N
SMILES: COC1=C(C=CC(=C1)C(=O)O)O
CCS: 
COLLISIONENERGY: 20eV
INSTRUMENTTYPE: ESI-QTOF
Num Peaks: 3
108.02184 100
123.04467 2
152.01155 46

NAME: Vanillic acid
PRECURSORMZ: 167.0351
PRECURSORTYPE: [M-H]-
FORMULA: C8H8O4
RETENTIONTIME: 2.336
IONMODE: Negative
COMMENT: Spectra extracted with MS2extract R package
INCHIKEY: WKOLLVMJNQIZCI-UHFFFAOYSA-N
SMILES: COC1=C(C=CC(=C1)C(=O)O)O
CCS: 
COLLISIONENERGY: 40eV
INSTRUMENTTYPE: ESI-QTOF
Num Peaks: 2
108.02123 100
111.0075 2

NAME: Vanillyl alcohol
PRECURSORMZ: 153.0558
PRECURSORTYPE: [M-H]-
FORMULA: C8H10O3
RETENTIONTIME: 2.05
IONMODE: Negative
COMMENT: Spectra extracted with MS2extract R package
INCHIKEY: ZENOXNGFMSCLLL-UHFFFAOYSA-N
SMILES: COC1=C(C=CC(=C1)CO)O
CCS: 
COLLISIONENERGY: 20eV
INSTRUMENTTYPE: ESI-QTOF
Num Peaks: 12
105.03449 13
106.04213 3
107.01281 2
107.05002 8
108.02132 15
109.02927 25
120.02183 100
121.02935 7
134.03723 5
135.04499 19
138.03197 22
151.00278 2
